NAME: +1O,-2H_C10_ATMA
PRECURSORMZ: 214.2166
FORMULA: C13H28NO+
SMILES: C[N+](C)(CCCCCCCCC(C)=O)C
INCHIKEY: FJYNKBFFJMQOSZ-UHFFFAOYSA-N
COLLISIONENERGY: 35
Num Peaks: 10
60.0796 18.46770976463809
60.0824 11.16343838186842
201.038 15.11827194421051
201.043 58.63621588877561
201.048 25.14885569493078
202.0469 7.185334574413073
214.2059 5.972326876763737
214.211 38.9706425542603
214.2162 44.13626760043142
215.2162 9.17808016784126
