NAME: +1O,-2H_C16_ATMA
PRECURSORMZ: 298.3105
FORMULA: C19H40NO+
SMILES: C[N+](C)(CCCCCCCCCCCCCCC(C)=O)C
INCHIKEY: OUFWXYJANJQWTB-UHFFFAOYSA-N
COLLISIONENERGY: 35
Num Peaks: 12
60.0796 9.2536448897598
60.0824 6.083237820583922
91.0516 10.45217584205272
91.055 12.87265377552655
256.2549 8.237512478278553
256.2606 15.80273844295732
256.2662 7.84929936776722
298.303 43.56490553480977
298.3091 71.37698574087084
298.3151 16.6364723136269
299.3064 16.6247642991829
299.3125 18.7593201957087
