NAME: +1O,-2H_C14_BAC
PRECURSORMZ: 346.3105
FORMULA: C23H40NO+
SMILES: C[N+](C)(CCCCCCCCCCCCC(C)=O)CC1=CC=CC=C1
INCHIKEY: WJXSUCMTEVWAMJ-UHFFFAOYSA-N
COLLISIONENERGY: 35
Num Peaks: 22
58.0669 9.47508603311002
58.0695 9.318373414241789
91.0562 32.19255126351585
91.0595 100
91.0629 20.34730904722149
91.1032 6.052495469262253
91.1065 6.119611476511434
92.0626 9.702579975157304
254.2577 56.75709136818099
254.2633 69.27878800219919
254.2689 5.950681137876968
254.3362 7.269217455048972
255.2572 5.144718890631045
255.2628 21.91207314341567
255.2684 8.203628662770573
256.2755 8.001303223441731
346.323 28.64591011830825
346.3295 66.5171760777047
346.3361 12.02948543036918
346.4146 5.840395854120426
347.3254 12.31138895110876
347.3319 26.91449632450264
