NAME: +1O,-2H_C12_ATMA
PRECURSORMZ: 242.2479
FORMULA: C15H32NO+
SMILES: C[N+](C)(CCCCCCCCCCC(C)=O)C
INCHIKEY: NVWHHZAWFBHYCO-UHFFFAOYSA-N
COLLISIONENERGY: 35
Num Peaks: 11
60.0796 19.79001542235339
60.0824 13.48918931690573
201.038 13.26773463241959
201.043 40.21690100911164
201.048 16.28218181193321
242.2379 10.3699216853754
242.2434 63.16205499636995
242.2489 37.97980058338596
242.32 6.216411274212881
243.2464 17.04234488506265
243.2519 8.314109090596661
