NAME: +1O_C14_Ethyl_BAC
PRECURSORMZ: 376.3574
FORMULA: C25H46NO+
SMILES: C[N+](C)(CCCCCCCCCCCCCCO)CC1=CC=C(CC)C=C1
INCHIKEY: JHOMCBNJIRVERC-UHFFFAOYSA-N
COLLISIONENERGY: 35
Num Peaks: 17
91.0562 10.0660177549457
105.0725 8.24065311763027
117.0694 5.394829735778769
117.0732 8.104637015006084
119.0839 13.11590284349511
119.0878 100
119.0916 54.06621302930618
119.1415 10.6997581602151
120.088 7.093791777447314
120.0919 15.89420635993571
135.0818 8.56480855602121
135.0859 5.123698796809517
256.2642 15.45896985264296
256.2698 21.61829870968711
376.3622 19.08881979180749
376.369 12.81232631847746
377.3661 8.641265978700073
