NAME: +1O_Cetylpyridinium
PRECURSORMZ: 320.2948
FORMULA: C21H38NO+
SMILES: OCCCCCCCCCCCCCCCC[N+]1=CC=CC=C1
INCHIKEY: DNAZXKVWIPBAJV-UHFFFAOYSA-N
COLLISIONENERGY: 35
Num Peaks: 13
80.0476 21.31913711912176
80.0507 60.26724255082808
80.0539 12.2637328874367
320.2909 29.82431003208329
320.2972 100
320.3035 33.02525303255006
320.3791 7.277233865297466
320.3853 9.92395729318688
320.4546 5.463316927331061
321.2927 9.788652088367888
321.299 40.5246474088167
321.3053 15.89895241865439
321.3873 5.141154643804617
