NAME: +2O,-2H_C18_BAC
PRECURSORMZ: 418.368
FORMULA: C27H48NO2+
SMILES: C[N+](C)(CCCCCCCCCCCCCCCCCC(O)=O)CC1=CC=CC=C1
INCHIKEY: ZCRLDXYSPDGFQQ-UHFFFAOYSA-O
COLLISIONENERGY: 35
Num Peaks: 19
58.0669 6.085943910018283
91.0562 21.82369966470052
91.0595 42.81932591238282
91.0629 5.728678765012566
326.3127 10.86557656650752
326.319 69.81416398017922
326.3253 32.55409045979313
326.408 5.467190397126374
327.3175 8.748312196760711
327.3238 19.65345926983532
418.3815 34.51759514687926
418.3887 100
418.3959 26.68861080064863
418.4822 7.378688132724324
418.4894 9.216374760154276
418.5686 5.021739551771144
419.3823 8.956824539528514
419.3895 44.30653091021856
419.3967 20.49897601219741
