NAME: +2O,-2H_C10_BAC
PRECURSORMZ: 306.2428
FORMULA: C19H32NO2+
SMILES: C[N+](C)(CCCCCCCCCC(O)=O)CC1=CC=CC=C1
INCHIKEY: QCCHPXIUFNIVMN-UHFFFAOYSA-O
COLLISIONENERGY: 35
Num Peaks: 13
58.0669 9.362087069895635
91.0528 20.18280015761124
91.0562 100
91.0595 33.96068383473925
91.1032 7.221648027693369
92.0593 9.239030649609994
200.2002 12.68925210990702
200.2052 38.65456938504798
200.2102 9.775300833235342
201.2069 6.03234331194029
292.267 21.6300798164778
292.273 16.66377850256944
293.2722 6.909210561603508
