NAME: +2O_C12_BAC
PRECURSORMZ: 336.2898
FORMULA: C21H38NO2+
SMILES: C[N+](CCCCCCCCCCC(O)CO)(C)CC1=CC=CC=C1
INCHIKEY: XRSKBNCUCFRAHE-UHFFFAOYSA-N
COLLISIONENERGY: 35
Num Peaks: 43
58.0642 7.329232074671192
58.0669 9.41875265167586
91.0528 55.23759015697921
91.0562 100
91.0595 17.70895205770046
92.0559 5.674586338565973
92.0593 8.152312261349174
123.0826 5.77004666949512
136.0608 6.77131947390751
136.0649 6.94102672889266
179.105 6.09885447602885
179.1097 5.199406024607552
181.0831 8.966907085277896
181.0878 8.179889690284261
183.0625 6.983453542638948
183.0673 5.403054730589733
195.0963 5.345778532032244
195.1012 7.015273652948665
209.0769 6.955876113703861
209.082 8.237165888841748
223.0944 7.834111158252015
223.0997 5.617310140008485
237.1115 5.381841323716588
244.2224 12.98684768773865
244.2279 67.98684768773865
244.2334 41.72464997878659
245.2295 7.530759439966059
245.235 9.688162918964787
253.1426 5.543063215952482
255.1223 5.778532032244378
267.1161 5.742469240560034
267.1219 8.413237165888841
267.1277 5.093338990241833
295.1489 5.405176071277047
295.1549 6.406448875689436
325.1634 6.056427662282562
336.2821 5.320322443784472
336.2885 62.01315231226134
336.295 66.90496393720832
336.3014 5.265167585914298
336.3788 5.475180313958421
337.2892 11.22189223589309
337.2957 20.37335596096733
