NAME: +2O_C14_ATMA
PRECURSORMZ: 288.2898
FORMULA: C17H38NO2+
SMILES: OCC(O)CCCCCCCCCCCC[N+](C)(C)C
INCHIKEY: FSHWVQHCSLMDBV-UHFFFAOYSA-N
COLLISIONENERGY: 35
Num Peaks: 12
256.2155 5.795966735086865
256.2211 11.60674609052627
256.2268 8.84736652771018
283.0634 7.461328480436761
283.0694 7.609454683962165
288.278 37.40186639016441
288.284 100
288.29 41.27642465666462
288.296 8.322576549505893
289.2824 13.55143153395264
289.2884 16.51395560446072
289.2944 7.452864125949595
