NAME: +2O_C10_BAC
PRECURSORMZ: 308.2585
FORMULA: C19H34NO2+
SMILES: C[N+](CCCCCCCCC(O)CO)(C)CC1=CC=CC=C1
INCHIKEY: PVQDRUKCJPFHEJ-UHFFFAOYSA-N
COLLISIONENERGY: 35
Num Peaks: 15
58.0669 9.309160229551818
91.0528 22.36045195496336
91.0562 100
91.0595 29.87251533985981
92.0593 7.999563136678647
136.0608 7.019599277189778
136.0649 12.27784507238031
136.069 6.239202525864294
216.1969 33.35749319883238
216.2021 38.68027562104093
217.2015 5.791417621477789
308.2612 29.59351853690502
308.2674 35.57656029706705
309.2626 6.27395301733553
309.2688 10.07168529954924
