NAME: +2O_C12_Ethyl_BAC
PRECURSORMZ: 364.3211
FORMULA: C23H42NO2+
SMILES: C[N+](CCCCCCCCCCC(O)CO)(C)CC1=CC=C(CC)C=C1
INCHIKEY: YTAQQMOUVCLDOJ-UHFFFAOYSA-N
COLLISIONENERGY: 35
Num Peaks: 25
91.0562 5.003889720529473
105.0689 20.44372281615766
105.0725 30.39639788304907
117.0694 39.13530333926614
117.0732 36.61788799962282
119.0839 14.78476879736914
119.0878 26.14393144662242
119.0916 5.431464302973868
135.0778 23.07252560732682
135.0818 100
135.0859 27.9314348353941
135.1391 5.256426879147562
136.0854 9.331793161164088
226.2159 7.870201204634661
226.2212 7.308843810040194
228.231 34.56399768974174
228.2363 42.87414986032368
229.2366 8.176958710027229
230.2497 10.63632291752614
362.3072 10.13832081943446
364.3188 23.57789460036068
364.3255 51.45363570999186
364.3322 6.914272916936786
365.3267 15.32432018293474
365.3334 5.133252395714235
