NAME: +3O,-2H_C12_DADMA
PRECURSORMZ: 428.4009
PRECURSORTYPE: [M]+
SMILES: C[N+](CCCCCCCCCCCC)(C)CCCCCCCCCCC(O)C(O)=O
INCHIKEY: LWBDIZMZJKXDKK-UHFFFAOYSA-O
COLLISIONENERGY: 35
FORMULA: C26H54NO3+
IONMODE: Positive
Num Peaks: 9
136.0608 5.30147971
136.0649 5.113632822
428.4069 43.53559428
428.4142 100
428.4214 21.81101855
428.5088 6.040399549
428.5161 6.101075756
429.4123 30.04137203
429.4196 27.01566568
