NAME: +3O,-2H_C16_BAC
PRECURSORMZ: 406.3316
PRECURSORTYPE: [M]+
SMILES: C[N+](C)(CC1=CC=CC=C1)CCCCCCCCCCCCCCC(O)C(O)=O
INCHIKEY: DTNKCRAVCXHNNW-UHFFFAOYSA-O
COLLISIONENERGY: 35
FORMULA: C25H44NO3+
IONMODE: Positive
Num Peaks: 30
58.0669 8.741238299
91.0528 7.152926197
91.0562 71.89629524
91.0595 49.96329667
92.0593 5.768593645
92.0626 5.332051424
282.286 9.579893073
282.2919 6.913867361
284.2992 8.140992744
284.3051 11.95424102
300.2962 49.15907157
300.3023 48.96808435
301.2968 7.361453062
301.3029 14.29156083
314.2754 15.99160696
314.2816 15.41474759
392.3552 7.214639755
392.3622 100
392.3691 85.85590209
392.3761 5.983616674
392.4597 10.76284454
393.3593 7.198399345
393.3662 45.27956242
393.3732 22.35070191
394.3716 6.286987534
406.3375 18.93371964
406.3446 55.12644783
406.3517 12.80653774
407.3451 12.92866562
407.3522 9.346031169
