NAME: +3O,-2H_C14_BAC
PRECURSORMZ: 378.3003 
PRECURSORTYPE: [M]+
SMILES: C[N+](CC1=CC=CC=C1)(C)CCCCCCCCCCCCC(O)C(O)=O 
INCHIKEY: KQSYXWCWPBXBCD-UHFFFAOYSA-O
COLLISIONENERGY: 35
FORMULA: C23H40NO3+
IONMODE: Positive
Num Peaks: 30
58.0669 8.543446121
58.0695 7.921984854
91.0562 33.80514291
91.0595 93.60797454
91.0629 17.97008257
91.1032 5.572750221
91.1065 5.435235937
92.0626 8.840941811
254.2577 14.57418992
254.2633 11.10250302
256.2698 6.367879762
256.2755 23.60326161
256.2811 7.397622875
272.2694 64.59814194
272.2752 59.45781927
272.3506 6.825485981
273.2687 5.641571924
273.2745 19.79727941
273.2804 6.78933199
364.3322 19.95403278
364.3389 100
364.3456 40.21447063
364.4262 5.894778976
364.433 10.96692556
364.5068 5.319026683
365.3334 5.378293403
365.3401 40.77304978
365.3469 22.09744792
366.3427 6.667183152
378.3166 10.87473288
