NAME: -2H_Cetylpyridinium
PRECURSORMZ: 302.2843
PRECURSORTYPE: [M]+
SMILES: C=CCCCCCCCCCCCCCC[N+]1=CC=CC=C1 
INCHIKEY: GHDGQJVCDBFPIY-UHFFFAOYSA-N
COLLISIONENERGY: 35
FORMULA: C21H36N+
IONMODE: Positive
Num Peaks: 120
67.054 5.207112651
70.0657 7.734243644
81.0706 7.769908799
84.0786 6.17007184
84.0818 7.133031029
86.097 7.831049065
91.0528 10.84730219
91.0562 12.40637897
93.0713 5.375248382
95.0844 7.79538391
95.0878 7.504967647
97.0636 6.862994854
97.0671 8.78381821
105.0689 5.67585469
107.0834 5.365058338
107.087 6.654098945
109.0619 5.915320732
109.0656 7.11265094
111.0437 5.961175931
111.0807 5.940795842
119.0878 5.22749274
120.0803 5.905130687
120.0841 6.012126153
121.1002 7.438732358
121.104 7.555917868
123.0396 8.829673409
123.0435 9.293320426
123.0787 15.04560045
123.0826 16.00346462
123.0865 6.557293524
136.0608 8.111275284
136.0649 6.939420186
137.0598 6.812044632
137.0968 5.095022163
139.0728 5.589239313
139.077 6.450298059
150.034 5.60452438
150.0383 7.6781984
155.0697 6.108931574
161.0937 5.273347939
161.0981 5.385438427
162.0551 5.752280022
163.0733 5.44148367
164.1081 6.256687217
169.0845 6.175166862
169.0891 5.380343404
172.8795 5.813420288
172.8841 8.259030927
178.0285 15.78437866
178.0331 30.03515565
178.0378 8.906098742
179.1003 5.008406787
179.105 12.06501248
179.1097 9.135374739
181.0783 7.336831915
181.0831 16.14103021
181.0878 12.00896724
181.0925 5.996841086
183.0577 7.107555918
183.0625 14.5055281
183.0673 11.16828858
191.0684 5.339583227
193.082 8.702297855
193.0869 8.320171193
193.0918 5.156162429
195.0963 7.133031029
195.1012 9.04366434
195.1061 5.242777806
197.0766 7.234931472
197.0815 6.959800275
197.1112 6.465583125
197.1161 5.950985887
207.0978 6.404442859
207.1029 5.191827584
209.0718 8.131655373
209.0769 18.34717481
209.082 15.73852346
209.0871 7.076985785
211.091 6.251592194
211.0961 6.862994854
213.1096 8.636062567
213.1147 6.740714322
221.1179 5.125592296
223.0892 9.23218016
223.0944 18.17903908
223.0997 9.6092118
237.106 6.857899832
237.1115 11.32113925
237.1169 5.436388648
249.1121 5.171447496
251.1205 6.297447394
251.1261 10.74030672
251.1317 8.269220971
253.137 8.895908697
253.1426 10.30722984
255.1167 10.76578183
255.1223 12.18219799
255.1279 5.283537983
255.156 5.400723493
256.2191 12.50827941
256.2248 100
256.2304 99.23574668
256.2361 14.68385387
256.3036 6.847709788
257.2281 18.35736485
257.2338 17.77143731
267.1161 10.43970041
267.1219 13.50180873
267.1277 7.005655475
269.1381 5.584144291
270.0738 6.557293524
270.0796 11.70836093
270.0854 6.817139655
271.0923 7.56101289
271.0981 5.971365975
293.1397 5.380343404
295.1489 8.518877057
295.1549 8.070515107
295.1609 5.273347939
301.2846 9.792632598
