NAME: -2H_C18_ATMA
PRECURSORMZ: 310.3469
PRECURSORTYPE: [M]+
SMILES: C[N+](C)(C)CCCCCCCCCCCCCCCCC=C
INCHIKEY: WDVROSITCNPFFZ-UHFFFAOYSA-N
COLLISIONENERGY: 35
FORMULA: C21H44N+
IONMODE: Positive
Num Peaks: 13
284.3256 7.389417668
284.3315 6.029571957
298.3394 5.409025161
298.3455 5.96974946
304.2934 9.622493259
304.2995 10.4671512
310.331 5.852783085
310.3372 39.78463901
310.3434 100
310.3496 37.0944124
311.342 16.3726138
311.3482 20.35929213
311.3544 7.126912981
