NAME: -2H_C12_Ethyl_BAC
PRECURSORMZ: 330.3156
PRECURSORTYPE: [M]+
SMILES: C=CCCCCCCCCCC[N+](C)(CC1=CC=C(CC)C=C1)C
INCHIKEY: BZLJEPLVQXLJAM-UHFFFAOYSA-N
COLLISIONENERGY: 35
FORMULA: C23H40N+
IONMODE: Positive
Num Peaks: 11
91.0562 5.085213505
117.0694 86.25343277
117.0732 100
117.077 9.47714178
117.1227 6.808330192
118.0726 9.195116041
118.0764 9.953691239
119.0839 6.726212913
119.0878 11.22045124
212.2374 10.95256044
212.2426 9.319638145
