NAME: Benzethonium
PRECURSORMZ: 412.3211
PRECURSORTYPE: [M]+
SMILES: C[N+](C)(CC1=CC=CC=C1)CCOCCOC2=CC=C(C(C)(CC(C)(C)C)C)C=C2
INCHIKEY: SIYLLGKDQZGJHK-UHFFFAOYSA-N
COLLISIONENERGY: 35
FORMULA: C27H42NO2+
IONMODE: Positive
Num Peaks: 23
72.0794 22.43250356
72.0824 36.73667345
91.0528 27.06899922
91.0562 40.44899898
300.1926 12.52556781
300.1987 12.15351657
320.2531 22.76490648
320.2594 77.18850139
320.2657 18.45039803
320.3476 5.210560426
321.2549 6.544458408
321.2612 25.44384684
321.2675 6.905279527
412.3161 25.15619294
412.3232 100
412.3304 27.69321375
412.4161 10.60624635
412.4232 12.81750801
412.5018 9.566217405
413.3168 7.582472786
413.3239 50.33831802
413.3311 27.57606905
413.4241 5.321447125
