NAME: C10_DADMA
PRECURSORMZ: 326.3782
PRECURSORTYPE: [M]+
SMILES: CCCCCCCCCC[N+](C)(CCCCCCCCCC)C
INCHIKEY: JGFDZZLUDWMUQH-UHFFFAOYSA-N
COLLISIONENERGY: 35
FORMULA: C22H48N+
IONMODE: Positive
Num Peaks: 15
184.2114 5.007048673
186.227 32.02668035
186.2318 42.35236392
187.2317 9.20750995
326.3889 43.10619835
326.3953 100
326.4016 15.02816979
326.4779 16.37334555
326.4842 9.549781566
326.5478 6.020812266
326.5542 9.592173233
326.5923 6.146343407
327.3938 45.57597374
327.4002 33.81918534
327.483 8.016159644
