NAME: C14_Ethyl_BAC
PRECURSORMZ: 360.3625
PRECURSORTYPE: [M]+
SMILES: CCCCCCCCCCCCCC[N+](C)(C)CC1=CC=C(CC)C=C1
INCHIKEY: VIQYYWHDEKRNMH-UHFFFAOYSA-N
COLLISIONENERGY: 35
FORMULA: C25H46N+
IONMODE: Positive
Num Peaks: 16
91.0562 11.89109416
117.0732 5.747055202
119.0839 9.4275244
119.0878 100
119.0916 69.36378922
119.1415 12.90984924
119.1838 5.502574834
120.088 7.63455253
120.0919 18.99168211
240.2692 18.70202413
240.2746 30.64895318
241.2736 5.982557968
242.2856 6.018700055
360.3679 21.65640807
360.3745 8.906244298
361.3703 8.396721959
