NAME: +1O,-2H_C10_BAC
PRECURSORMZ: 290.2479
FORMULA: C19H32NO+
SMILES: C[N+](C)(CCCCCCCCC(C)=O)CC1=CC=CC=C1
INCHIKEY: HHGSRKDEDGVDBK-UHFFFAOYSA-N
COLLISIONENERGY: 35
Num Peaks: 13
58.0669 9.60032199874256
91.0528 21.54483009865618
91.0562 100
91.0595 30.74794196971567
91.1032 5.426677713338856
92.0593 7.675968199686227
198.1844 5.245406523412481
198.1894 12.45189115502359
200.2002 12.29794285109909
200.2052 33.56748752842461
200.2102 7.95507294916768
290.2498 5.524511272893935
290.2557 5.733986732241593
