NAME: +1O,-2H_C16_BAC
PRECURSORMZ: 374.3418
FORMULA: C25H44NO+
SMILES: C[N+](C)(CCCCCCCCCCCCCCC(C)=O)CC1=CC=CC=C1
INCHIKEY: JIOIJSZSAIFPFA-UHFFFAOYSA-N
COLLISIONENERGY: 35
Num Peaks: 25
58.0669 13.89551565891658
58.0695 6.80399258332562
91.0528 7.084655784498434
91.0562 100
91.0595 81.83571648239436
91.1032 8.410640121103185
92.0593 8.771023614524022
92.0626 7.734659815299727
282.2801 6.678888454292206
282.286 78.48626989648305
282.2919 76.89514840813206
282.2978 6.211912660000419
282.3687 7.692261757250217
283.2858 8.590085423129635
283.2917 25.92044093980371
283.2976 9.487311933261875
284.2992 15.17133891275853
284.3051 20.42332370917321
374.3447 7.176617769563569
374.3515 84.73580336855558
374.3583 85.91011014537757
374.3651 6.884310031320819
374.4468 11.35252790956674
375.3528 29.80583480880566
375.3596 42.07857972477092
