NAME: +1O,-2H_C12_BAC
PRECURSORMZ: 318.2792
FORMULA: C21H36NO+
SMILES: C[N+](C)(CCCCCCCCCCC(C)=O)CC1=CC=CC=C1
INCHIKEY: YPRJJWFNNPDWRK-UHFFFAOYSA-N
COLLISIONENERGY: 35
Num Peaks: 17
58.0642 6.666815920954929
58.0669 10.90190635039683
91.0528 37.44703027498859
91.0562 100
91.0595 16.65628105577509
91.0998 5.92639027260052
91.1032 5.290318247456147
92.0593 9.138466934578114
226.2159 24.8050676806008
226.2212 31.99166166042908
227.2224 7.879382634512318
228.231 19.52644101905853
228.2363 29.26540770674517
229.2366 6.482238117803922
318.2794 19.95069633344403
318.2856 19.86437760339902
319.2844 8.980133010446556
