NAME: +1O,-2H_Benzethonium
PRECURSORMZ: 426.3003
FORMULA: C27H40NO3+
SMILES: C[N+](CCOCCOC1=CC=C(C(C)(C)C(C(C)(C)C)=O)C=C1)(C)CC2=CC=CC=C2
INCHIKEY: BGXJQQRXBFRNAN-UHFFFAOYSA-N
COLLISIONENERGY: 35
Num Peaks: 25
72.0794 20.71632873266799
72.0824 30.08583123934144
91.0528 30.36891773853769
91.0562 41.81703852863529
116.1046 5.494863093301102
116.1084 8.871960245553682
250.1792 9.000413497133659
334.2337 44.79984536675239
334.2402 64.56525302843833
334.3238 5.48727823463638
335.2378 17.56677734035708
335.2443 13.27484836399492
341.2353 6.323937079927283
426.2906 5.225845283563611
426.2979 77.7905551382524
426.3051 100
426.3124 8.291963230562576
426.3996 17.26827645097123
426.4068 6.242583353926633
426.4795 6.380089501332244
426.4868 6.407248188809153
426.5303 5.611816720453917
427.3008 47.69885175026731
427.3081 44.67212613375287
427.4026 5.061792130831472
