NAME: +1O,-2H_C14_Ethyl_BAC
PRECURSORMZ: 374.3418
FORMULA: C25H44NO+
SMILES: C[N+](C)(CCCCCCCCCCCCC(C)=O)CC1=CC=C(CC)C=C1
INCHIKEY: YIUCYXRZQUTKMU-UHFFFAOYSA-N
COLLISIONENERGY: 35
Num Peaks: 22
91.0562 8.218545037470909
117.0694 15.00311793592642
117.0732 20.89963586962574
119.0839 28.69224858857722
119.0878 100
119.0916 27.42224647283498
120.088 5.473369486542766
120.0919 8.661180584167568
135.0778 6.986125185127445
135.0818 45.23818803380733
135.0859 25.54703072280436
212.2374 16.44739039898444
212.2426 20.08117768894135
254.2465 5.978642138904045
254.2521 13.965569078984
256.2642 5.486175294811977
256.2698 5.575259178423883
348.3292 22.00817344632139
348.3358 13.26681736690311
349.3344 6.564925447924902
374.3447 10.23685177555315
374.3515 7.038183579613152
