NAME: +1O,-2H_C8_ATMA
PRECURSORMZ: 186.1853
FORMULA: C11H24NO+
SMILES: C[N+](C)(CCCCCCC(C)=O)C
INCHIKEY: CAWJOTGJACXNEK-UHFFFAOYSA-N
COLLISIONENERGY: 35
Num Peaks: 29
55.0537 5.074427555869762
60.0784 11.14645929067986
60.0811 42.12324731942972
60.0839 14.65378421900161
69.0681 6.75935744864695
69.071 10.0663760260791
70.0628 8.880248222772083
70.0657 17.10066376026079
70.0686 8.228270688503986
77.0391 7.937630100938691
91.0528 5.176544519068379
91.0562 5.156906641530183
98.0609 5.255096029221161
108.0429 10.30988570755273
108.0466 10.66336750324025
120.0803 7.544872550174778
120.0841 5.117630886453792
121.0885 5.368995718942696
136.0567 11.45281018027572
136.0608 42.24107458465889
136.0649 39.15400023565453
136.069 11.12289383763403
154.0725 6.924315619967794
154.0769 5.98955264914968
160.1129 5.592867522878127
173.0507 7.038215309689329
173.0553 6.252700208161502
186.1838 5.31008208632811
186.1886 6.060249008287184
