NAME: +1O,-2H_C10_DADMA
PRECURSORMZ: 340.3574
FORMULA: C22H46NO+
SMILES: C[N+](CCCCCCCCC(C)=O)(CCCCCCCCCC)C
INCHIKEY: OKITUBQCTQMRAD-UHFFFAOYSA-N
COLLISIONENERGY: 35
Num Peaks: 14
186.227 19.2951784477875
186.2318 18.31064706993139
200.2052 13.37351293510417
200.2102 30.38325360357525
340.3651 16.13890287656574
340.3716 100
340.3781 56.33694215396235
340.456 6.610278844338138
340.4624 15.91175174671115
340.5338 8.98879587083779
340.5793 5.56406181154403
341.3718 35.33407817712595
341.3783 39.79676779757034
341.4628 5.115424560961793
