NAME: +1O,-2H_C18_ATMA
PRECURSORMZ: 326.3418
FORMULA: C21H44NO+
SMILES: C[N+](C)(CCCCCCCCCCCCCCCCC(C)=O)C
INCHIKEY: NYSGZEVUPVMWGJ-UHFFFAOYSA-N
COLLISIONENERGY: 35
Num Peaks: 191
55.0537 6.864712966680048
55.0563 5.901244480128462
60.0784 7.04536330790847
60.0811 13.93014853472501
60.0839 7.808109193095142
67.054 11.32075471698113
67.0569 6.272581292653554
69.0681 5.078281814532317
69.071 6.764351665997591
70.0657 6.00160578081092
72.0824 5.078281814532317
79.053 8.520674427940586
79.0561 5.248896025692493
81.0674 9.925732637494981
81.0706 11.83259735046166
81.0738 5.409474106784424
83.0496 6.00160578081092
85.0296 5.901244480128462
88.0765 6.262545162585307
91.0528 23.1533520674428
91.0562 23.32396627860297
91.0595 6.493376154154958
93.0679 5.881172219991971
93.0713 10.2368526696106
93.0747 5.228823765556002
95.081 9.32356483340024
95.0844 25.53191489361702
95.0878 19.60056202328382
95.0913 5.891208350060217
97.0601 10.73865917302288
97.0636 35.46768366118025
97.0671 32.45684464070654
97.0705 6.804496186270574
99.0422 12.76595744680851
99.0457 17.442794058611
99.0492 6.172219991971096
101.0584 6.714171015656363
101.062 5.008028904054596
105.0689 9.062625451625852
105.0725 5.841027699718988
107.0834 14.01043757527098
107.087 14.37173825772782
107.0907 5.359293456443195
109.0619 12.99678843837816
109.0656 20.52388598956242
109.0692 7.195905258932155
109.0986 16.86069851465275
109.1023 20.51384985949418
109.106 7.918506623845845
111.04 5.770774789241269
111.0437 12.18386190285026
111.0474 11.46126053793657
111.077 11.63187474909675
111.0807 20.13247691690084
111.0844 12.42472902448816
113.0545 5.158570855078281
113.0582 10.64833400240867
113.062 8.590927338418306
115.0758 6.804496186270574
119.0801 15.53592934564432
119.0839 55.84102769971899
119.0878 52.05740666399037
119.0916 16.71015656362906
120.088 5.901244480128462
121.0614 6.894821356884785
121.0653 8.63107185869129
121.0963 9.654757125652349
121.1002 19.18908069048575
121.104 15.49578482537134
123.0357 12.77599357687676
123.0396 41.07788036932959
123.0435 41.9811320754717
123.0474 16.45925331192292
123.0748 16.44921718185468
123.0787 48.10317141710156
123.0826 47.12966680048174
123.0865 18.31593737454838
123.1138 6.071858691288639
123.1177 8.400240867121637
124.0837 6.473303894018466
125.0575 6.23243677238057
125.0614 5.770774789241269
125.0929 6.694098755519871
125.0968 8.711360899237254
127.0758 5.309112806101967
133.1021 7.48695303091128
135.0778 7.316338819751104
135.0818 9.16298675230831
135.1146 7.83821758329988
135.1187 6.433159373745484
137.0515 9.37374548374147
137.0556 31.24247290244881
137.0598 25.44158972300281
137.0639 12.18386190285026
137.0927 10.31714171015656
137.0968 20.88518667201927
137.101 10.08631071858691
138.0624 6.60377358490566
138.0665 5.188679245283019
139.0687 8.149337615415496
139.0728 19.16900843034926
139.077 17.17181854676837
139.0811 8.259735046166199
139.1102 5.108390204737053
141.088 5.770774789241269
141.0922 7.48695303091128
147.0797 5.780810919309514
147.1181 5.529907667603372
149.0918 5.389401846647933
149.0961 8.380168606985148
149.1004 5.519871537535127
149.1304 5.04817342432758
149.1347 5.108390204737053
151.0699 5.710558008831795
151.0742 10.35728623042955
151.0786 7.286230429546367
153.048 7.446808510638298
153.0524 10.33721397029305
153.0567 8.149337615415496
153.0872 8.781613809714974
153.0916 11.22039341629868
153.0959 6.09193095142513
155.0653 6.031714171015656
155.0697 10.02609393817744
155.0741 6.101967081493377
157.1002 5.339221196306704
159.1173 6.473303894018466
159.1217 5.04817342432758
161.0937 9.714973906061823
161.0981 8.962264150943396
163.0688 10.02609393817744
163.0733 21.00562023283822
163.0778 11.91288639100763
163.1092 8.159373745483741
163.1137 8.621035728623044
165.0469 5.459654757125652
165.0514 13.66920915295062
165.0559 7.747892412685668
165.083 6.23243677238057
165.0875 14.96386993175431
165.0921 15.69650742673625
165.0966 5.379365716579687
167.0641 5.549979927739863
167.0687 7.406663990365316
167.1051 7.115616218386191
167.1096 5.339221196306704
169.08 8.63107185869129
169.0845 19.2894419911682
169.0891 15.8169409875552
175.1069 6.563629064632677
175.1115 11.79245283018868
175.1162 6.142111601766359
177.0816 9.293456443195504
177.0862 22.90244881573665
177.0909 26.24448012846247
177.0956 10.19670814933762
177.1237 5.529907667603372
179.0626 9.915696507426736
179.0673 23.84584504215175
179.072 14.7631473303894
179.1003 23.60497792051385
179.105 35.97952629466078
179.1097 24.37775993576877
179.1144 7.386591730228824
181.0736 7.607386591730229
181.0783 33.5006021678041
181.0831 72.30028101164191
181.0878 43.87796065837013
181.0925 16.19831393014853
182.0833 6.714171015656363
182.088 7.607386591730229
182.0928 5.479727017262144
183.0577 13.23765556001606
183.0625 23.03291850662384
183.0673 15.71657968687274
183.1006 7.005218787635488
191.0635 6.202328382175833
191.0684 11.24046567643517
191.0733 7.456844640706543
191.1024 8.49056603773585
191.1073 7.888398233641109
191.1122 5.670413488558812
193.0771 13.51866720192694
193.082 32.45684464070654
193.0869 32.36651947009233
193.0918 11.92292252107587
193.1162 7.747892412685668
193.1211 11.37093536732236
193.126 8.099156965074267
194.0903 6.081894821356885
195.0619 5.41951023685267
