NAME: +1O,-2H_Cetylpyridinium
PRECURSORMZ: 318.2792
FORMULA: C21H36NO+
SMILES: CC(CCCCCCCCCCCCCC[N+]1=CC=CC=C1)=O
INCHIKEY: PXWOVLWEGSNDIB-UHFFFAOYSA-N
COLLISIONENERGY: 35
Num Peaks: 10
80.0476 38.40156663207579
80.0507 89.20496769658219
80.0539 15.12469454022026
318.2731 14.93991229538379
318.2794 100
318.2856 62.72152110601547
318.3673 10.30027114785927
319.2781 14.17902453720751
319.2844 39.24011649315435
319.2906 8.919090817795333
