NAME: +1O,-2H_C8_BAC
PRECURSORMZ: 262.2166
FORMULA: C17H38NO+
SMILES: C[N+](C)(CCCCCCC(C)=O)CC1=CC=CC=C1
INCHIKEY: KQIZNYLQRNPLNA-UHFFFAOYSA-N
COLLISIONENERGY: 35
Num Peaks: 12
58.0669 9.919790399885544
58.0695 5.659158380427785
91.0562 97.05070999356177
91.0595 100
91.1032 10.06152085270763
92.0593 8.711504757135703
92.0626 8.948690893483082
170.1613 6.468631518706632
172.1725 17.56205737177194
172.1772 27.85629336862436
201.0523 15.46315008226625
201.0573 8.670595178482008
