NAME: +1O,-2H_C12_Ethyl_BAC
PRECURSORMZ: 346.3105
FORMULA: C23H40NO+
SMILES: C[N+](C)(CCCCCCCCCCC(C)=O)CC1=CC=C(CC)C=C1
INCHIKEY: KCEDABUBTBCQRW-UHFFFAOYSA-N
COLLISIONENERGY: 35
Num Peaks: 12
91.0562 8.78012990757388
119.0839 30.08689414947107
119.0878 100
119.0916 25.34018110175312
119.1377 5.572289509646962
119.1415 6.535813656938054
120.088 7.526646054602436
120.0919 10.67693988200023
226.2159 12.06626177009032
226.2212 14.12774166629552
346.3099 7.450933051421553
346.3164 9.106070870183844
