NAME: +1O,-2H_C14_ATMA
PRECURSORMZ: 270.2792
FORMULA: C17H36NO+
SMILES: C[N+](C)(CCCCCCCCCCCCC(C)=O)C
INCHIKEY: AIGHPZISWJFPDQ-UHFFFAOYSA-N
COLLISIONENERGY: 35
Num Peaks: 5
60.0811 10.90464188097171
60.0839 15.25614127314174
270.282 5.241105890709511
270.2878 19.7287372938502
270.2935 6.279188746462149
