NAME: +1O_Benzethonium
PRECURSORMZ: 428.316
FORMULA: 27H42NO3+
SMILES: C[N+](CCOCCOC1=CC=C(C(C)(C)CC(CO)(C)C)C=C1)(C)CC2=CC=CC=C2
INCHIKEY: IJCHPCLOCDJADY-UHFFFAOYSA-N
COLLISIONENERGY: 35
Num Peaks: 24
72.0794 17.87370182039777
72.0824 26.05634140195253
91.0528 22.71928084754516
91.0562 27.15965632913758
116.1046 9.42172500390448
116.1084 15.57882593494323
250.1792 5.366431822994367
300.1926 6.422509732454514
300.1987 5.692108543576389
336.2498 43.44646263724366
336.2563 43.1919767973302
337.2505 6.816407054700083
337.2569 15.13213429876983
354.2369 7.363321653429762
354.2435 13.01490026090548
428.3122 57.85720239960217
428.3195 100
428.3268 13.19800358924682
428.4142 13.85041100038039
428.4214 8.007297304807157
428.5016 7.203884741676752
429.3102 6.889801690759461
429.3175 50.83804984894694
429.3248 30.64149403117643
