NAME: +1O_C10_ATMA
PRECURSORMZ: 216.2322
FORMULA: C13H30NO+
SMILES: C[N+](C)(CCCCCCCCCCO)C
INCHIKEY: SOEACQDUTJQNRH-UHFFFAOYSA-N
COLLISIONENERGY: 35
Num Peaks: 12
60.0796 14.35238744862447
60.0824 9.554384071331466
201.038 10.61425901336832
201.043 32.99238605592632
201.048 14.89126667479074
216.2238 24.17486591323807
216.229 100
216.2341 42.07546841344777
216.2962 5.028906399606246
216.3014 9.266507033916946
217.2285 17.55448535846942
217.2337 22.13535443376533
