NAME: +1O_C14_BAC
PRECURSORMZ: 348.3261
FORMULA: C23H42NO+
SMILES: C[N+](C)(CCCCCCCCCCCCCCO)CC1=CC=CC=C1
INCHIKEY: ZNZDNNPWQRSLIB-UHFFFAOYSA-N
COLLISIONENERGY: 35
Num Peaks: 22
58.0669 10.73770857660371
58.0695 10.26508612311365
91.0562 32.04322641675149
91.0595 100
91.0629 20.03652835230782
91.1032 6.283898872473288
91.1065 6.039704605567226
92.0626 9.914344829373576
256.2698 15.01074829128805
256.2755 98.44614119784775
256.2811 46.51216867834172
256.3543 8.75823759699019
257.2733 7.682328599669703
257.2789 26.77303611512262
257.2845 8.084543625968102
348.3358 9.779001308800641
348.3423 76.28939900277743
348.3489 47.26195738406891
348.4342 10.43786508554718
349.341 16.62947119558723
349.3476 35.98863402392124
349.3542 5.942660421667058
