NAME: +1O_C10_BAC
PRECURSORMZ: 292.2635
FORMULA: C19H34NO+
SMILES: C[N+](C)(CCCCCCCCCCO)CC1=CC=CC=C1
INCHIKEY: MIIXOUALFMVRIJ-UHFFFAOYSA-N
COLLISIONENERGY: 35
Num Peaks: 13
58.0669 9.365087219841667
91.0528 19.75421102222887
91.0562 100
91.0595 33.96741463079644
91.1032 7.256521163927656
92.0593 9.292879512098073
200.2002 12.55464810608776
200.2052 38.80189739638194
200.2102 9.533639197777417
201.2069 6.015255519345102
292.267 20.39135567699018
292.273 16.55727788050685
293.2722 6.986171466543594
