NAME: +1O_C12_Ethyl_BAC
PRECURSORMZ: 348.3261
FORMULA: C23H42NO+
SMILES: C[N+](C)(CCCCCCCCCCCCO)CC1=CC=C(CC)C=C1
INCHIKEY: KCCYICCZNUPFCK-UHFFFAOYSA-N
COLLISIONENERGY: 35
Num Peaks: 13
91.0562 8.323385106990601
117.0694 7.762703927919954
117.0732 7.517900375374023
119.0839 25.39312646168175
119.0878 100
119.0916 28.16771680486983
119.1377 6.329001566845649
119.1415 7.171406224673831
120.088 8.43234391361509
120.0919 11.7187962303083
228.231 11.99235101459045
228.2363 19.7728717013268
348.3292 11.29904111104536
