NAME: +1O_C8_ATMA
PRECURSORMZ: 188.2009
FORMULA: C11H26NO+
SMILES: C[N+](C)(CCCCCCCCO)C
INCHIKEY: KRWGWUOFODWTMB-UHFFFAOYSA-N
COLLISIONENERGY: 35
Num Peaks: 11
60.0796 20.13798525265669
60.0824 13.5486698474662
136.0603 6.633593580568206
188.1913 11.60359285765922
188.1961 100
188.2009 92.419847466204
188.2058 12.11640641943179
188.2637 9.589387696089062
189.1964 10.05656762813562
189.2013 20.03994072146317
189.2061 7.452288006939926
