NAME: +1O_C16_BAC
PRECURSORMZ: 376.3574
FORMULA: C25H46NO+
SMILES: C[N+](C)(CCCCCCCCCCCCCCCCO)CC1=CC=CC=C1
INCHIKEY: VLZRCNCTTNQLHS-UHFFFAOYSA-N
COLLISIONENERGY: 35
Num Peaks: 24
58.0669 11.83013115003541
58.0695 5.240636808233796
91.0562 67.34416789077268
91.0595 75.72924530694335
91.1032 8.763721204247208
92.0593 7.788630542371624
92.0626 7.069968143982178
284.2992 25.01009521691548
284.3051 100
284.311 33.08090414128232
284.3822 5.198110097362759
284.3882 7.940790333561573
285.3025 11.53127371400592
285.3084 30.05009568509946
285.3144 6.054106461133903
376.3622 8.184636152776234
376.369 80.31920393118476
376.3758 70.99229642287938
376.4645 14.24235153203451
376.5396 5.993632697968667
377.3661 9.479847606116824
377.3729 50.28578730011958
377.3797 20.91943529209803
377.4686 5.782949910167201
