NAME: +1O_C12_ATMA
PRECURSORMZ: 244.2635
FORMULA: C15H34NO+
SMILES: C[N+](C)(CCCCCCCCCCCCO)C
INCHIKEY: WLWRSUHABAMQTH-UHFFFAOYSA-N
COLLISIONENERGY: 35
Num Peaks: 15
60.0796 15.25654854978079
60.0824 10.15106817082029
201.043 10.34286951809264
242.2434 27.48789972861819
242.2489 16.26332428727303
243.2464 7.608845451220183
244.257 57.57573873568613
244.2625 100
244.268 15.56979299754109
244.334 10.87589281921039
244.3395 7.713191186878341
244.4 5.40587589800023
245.2587 17.44552934995819
245.2642 33.72926685463406
245.2697 7.612368544579047
