NAME: +1O_C10_DADMA
PRECURSORMZ: 342.3731
FORMULA: C22H48NO+
SMILES: C[N+](CCCCCCCCCCO)(CCCCCCCCCC)C
INCHIKEY: FYZRSXHQGRFBKF-UHFFFAOYSA-N
COLLISIONENERGY: 35
Num Peaks: 15
186.227 19.36652132052271
186.2318 18.47298718567322
202.2212 12.44132603711997
202.2262 21.31318499280681
342.38 10.7478692818596
342.3865 100
342.3931 70.27890005358759
342.4712 5.608797258805819
342.4777 17.7193144346287
342.5493 9.043461535895903
342.5949 5.872510456250514
343.3832 9.308786808114183
343.3897 52.53840629176108
343.3962 23.42211232937022
343.481 6.275862682359009
