NAME: +1O_C12_BAC
PRECURSORMZ: 320.2948
FORMULA: C21H38NO+
SMILES: C[N+](C)(CCCCCCCCCCCCO)CC1=CC=CC=C1
INCHIKEY: MYNZSFKZMCBDBR-UHFFFAOYSA-N
COLLISIONENERGY: 35
Num Peaks: 18
58.0642 5.781967630042979
58.0669 9.779697928844227
91.0528 33.5134632605476
91.0562 100
91.0595 19.65022664954061
91.0998 6.174463510599419
91.1032 5.826207568662736
92.0593 9.453882535482782
228.231 33.29450762230633
228.2363 58.41338909987754
228.2416 7.961692914984517
229.2366 13.38771070072216
229.2419 6.404211984107818
320.2909 8.244123247767165
320.2972 44.94863251571373
320.3035 22.57893195811953
321.299 15.57128293684802
321.3053 9.600494119507676
