NAME: +1O_C8_BAC
PRECURSORMZ: 264.2322
FORMULA: C17H30NO+
SMILES: C[N+](C)(CCCCCCCCO)CC1=CC=CC=C1
INCHIKEY: TYTZIUGBTOGAGR-UHFFFAOYSA-N
COLLISIONENERGY: 35
Num Peaks: 12
58.0669 9.7749420880262
58.0695 5.354461218947201
91.0562 98.63487499001518
91.0595 100
91.0629 5.043334132119178
91.1032 10.27338445562745
92.0593 9.088585350267593
92.0626 9.508147615624251
172.1725 18.14022685518012
172.1772 30.56773703969965
264.2377 10.15556354341401
264.2434 16.9917725057912
