NAME: +1O_C16_ATMA
PRECURSORMZ: 300.3261
FORMULA: C19H42NO+
SMILES: C[N+](C)(CCCCCCCCCCCCCCCCO)C
INCHIKEY: VNPSRTOIODNXDX-UHFFFAOYSA-N
COLLISIONENERGY: 35
Num Peaks: 12
60.0811 10.57350716775385
60.0839 6.486032403483803
274.2757 6.136485747008628
300.3267 47.43374186159342
300.3328 100
300.3389 15.4469345490327
300.412 11.82179945179371
300.4182 7.486031162636602
300.4852 5.912636911978022
301.3273 12.03621784809797
301.3334 41.03705045656973
301.3396 12.16092299178187
