NAME: +1O_C14_ATMA
PRECURSORMZ: 272.2948
FORMULA: C17H38NO+
SMILES: C[N+](C)(CCCCCCCCCCCCCCO)C
INCHIKEY: KEEMLLNPUMWNGD-UHFFFAOYSA-N
COLLISIONENERGY: 35
Num Peaks: 17
60.0796 11.63915421122971
60.0824 7.850345338024364
270.2727 10.24306956219768
270.2785 10.19299642560237
272.2833 7.007959085599633
272.2891 84.66218610018836
272.2949 100
272.3008 9.75698305405794
272.3704 16.18975877200675
272.3763 7.311730268027206
272.4343 5.003542827878197
272.4401 6.669811949502426
272.4749 5.444467049946858
273.2885 14.75307191239043
273.2943 47.59412171192249
273.3002 19.13653216782481
273.3758 7.220090289494638
