NAME: +1O_C18_BAC
PRECURSORMZ: 404.3887
FORMULA: C27H50NO+
SMILES: C[N+](C)(CCCCCCCCCCCCCCCCCCO)CC1=CC=CC=C1
INCHIKEY: SIBPUKXNZCTDKC-UHFFFAOYSA-N
COLLISIONENERGY: 35
Num Peaks: 20
58.0669 7.880196805885069
58.0695 6.206275612195712
91.0562 25.5730400834934
91.0595 50.73425849662654
91.0629 6.041691696835559
312.3326 9.880680280183489
312.3388 80.61557568905944
312.345 48.11278557914866
312.4258 7.217518560925723
313.3405 21.41212130862307
313.3468 17.39392877873524
404.4039 66.62391634447108
404.411 100
404.418 10.77452872112363
404.5029 12.99025958516747
404.51 6.332934298158889
404.5878 5.108760004226781
405.402 7.162512503021714
405.4091 49.80407710691296
405.4162 28.19205220364401
