NAME: +2O,-2H_C10_DADMA
PRECURSORMZ: 356.3524
FORMULA: C22H46NO2+
SMILES: C[N+](CCCCCCCCCC(O)=O)(CCCCCCCCCC)C
INCHIKEY: CSMSWIZPBCKUNG-UHFFFAOYSA-O
COLLISIONENERGY: 35
Num Peaks: 20
200.2052 14.96572480314679
200.2102 34.18328837119597
200.2151 5.599631413652458
201.2119 5.38176545241117
202.2212 22.9666438879669
202.2262 38.37167218673137
203.228 6.037387227578259
356.3588 9.31323410709481
356.3655 97.8349123655005
356.3721 100
356.3788 6.103104173264156
356.4584 20.62643011740951
356.4651 5.900000714314627
356.5315 8.80618977434801
356.5381 7.027189195753161
356.578 7.315891357507327
357.3623 8.706185726565122
357.369 59.61241288337862
357.3756 31.7035451434939
357.4621 7.147551210406136
