NAME: +2O,-2H_Cetylpyridinium
PRECURSORMZ: 334.2741
FORMULA: C21H36NO2+
SMILES: OC(CCCCCCCCCCCCCCC[N+]1=CC=CC=C1)=O
INCHIKEY: QMLZXJMIAQKVLK-UHFFFAOYSA-O
COLLISIONENERGY: 35
Num Peaks: 15
80.0476 24.52019837049724
80.0507 58.10598886484878
80.0539 9.564538361480402
274.2757 12.25621633515036
320.2909 32.61550939757581
320.2972 100
320.3035 26.23426097498366
320.3791 7.192764093128003
320.3853 7.856084318247023
321.2927 11.21410251155687
321.299 38.30129622479114
321.3053 10.88319739762758
322.3025 5.171956330879228
334.2723 19.4504904255388
334.2787 13.36455432430858
