NAME: +2O,-2H_C14_ATMA
PRECURSORMZ: 286.2741
FORMULA: C17H36NO2+
SMILES: C[N+](C)(CCCCCCCCCCCCCC(O)=O)C
INCHIKEY: YEHIHRUUNALFSN-UHFFFAOYSA-O
COLLISIONENERGY: 35
Num Peaks: 15
60.0796 11.05202432249174
60.0824 7.88047638837245
272.2833 15.09902885014983
272.2891 100
272.2949 90.48617642555612
272.3008 7.711236028784533
272.3704 11.73527417485072
273.2885 13.86513265819462
273.2943 35.65804151446882
273.3002 13.84490036964938
286.2627 11.19556420744111
286.2686 56.81390669087251
286.2746 35.62222489555765
287.2695 9.321890242568735
287.2755 13.16766552199304
