NAME: +2O,-2H_C12_BAC
PRECURSORMZ: 334.2741
FORMULA: C21H36NO2+
SMILES: C[N+](C)(CCCCCCCCCCCC(O)=O)CC1=CC=CC=C1
INCHIKEY: IWNUPTKVCHJRID-UHFFFAOYSA-O
COLLISIONENERGY: 35
Num Peaks: 21
58.0642 6.267362495170696
58.0669 9.903189077700167
91.0528 37.17684550931008
91.0562 100
91.0595 17.20846850272179
91.0998 6.357816112395518
91.1032 5.432736237252173
92.0593 9.022365040136876
228.231 32.65140504618756
228.2363 53.35179200369582
228.2416 5.610781662343291
229.2366 11.89613267348186
229.2419 5.522269987183182
242.2144 9.878965905629792
320.2909 8.916069263963076
320.2972 47.72138650575121
320.3035 19.46020143049585
321.299 15.16094611417393
321.3053 7.572347562658294
334.2723 5.369674223887523
334.2787 7.998961572032763
