NAME: +2O,-2H_C12_ATMA
PRECURSORMZ: 258.2428
FORMULA: C15H32NO2+
SMILES: C[N+](C)(CCCCCCCCCCCC(O)=O)C
INCHIKEY: JKWNAXKWSYIYSY-UHFFFAOYSA-O
COLLISIONENERGY: 35
Num Peaks: 21
60.0796 17.71734397553391
60.0824 11.68773506954802
201.038 6.427662864411371
201.043 20.0655537612842
201.048 7.878794112504243
242.2379 6.811316938035924
242.2434 43.94107704281222
242.2489 26.94887012332472
243.2464 12.67961284881149
243.2519 5.998237728383887
244.257 51.03782026886642
244.2625 100
244.268 15.86490165221536
244.334 10.79562792069092
244.3395 8.304962131731518
244.4 6.204807504397108
245.2587 16.06392863142809
245.2642 34.91200641823437
245.2697 8.409875578138232
258.2354 13.51703472086509
258.2411 15.48673324899115
