NAME: +2O,-2H_C16_ATMA
PRECURSORMZ: 314.3054
FORMULA: C19H40NO2+
SMILES: C[N+](C)(CCCCCCCCCCCCCCCC(O)=O)C
INCHIKEY: NBKSYCYPWIZMBS-UHFFFAOYSA-O
COLLISIONENERGY: 35
Num Peaks: 13
60.0811 9.771712243084291
60.0839 5.829366269865979
300.3267 54.67717254509056
300.3328 100
300.3389 13.62632054627549
300.412 10.15455037746066
300.4182 6.323904835760742
301.3273 11.1568353305446
301.3334 37.74021724979198
301.3396 10.8115451452766
302.3358 5.674646077560101
314.3065 15.91919832298406
314.3128 13.9899129981943
