NAME: +2O,-2H_C18_ATMA
PRECURSORMZ: 342.3367
FORMULA: C21H44NO2+
SMILES: C[N+](C)(CCCCCCCCCCCCCCCCCC(O)=O)C
INCHIKEY: WQNNNZHTGIVOLM-UHFFFAOYSA-O
COLLISIONENERGY: 35
Num Peaks: 7
60.0811 6.991735166976505
328.3494 10.91181938316124
328.3557 100
328.3621 86.54332877908931
328.445 12.14325710574059
329.3573 32.38157099021211
329.3637 36.57177413935987
