NAME: +2O,-2H_C8_BAC
PRECURSORMZ: 278.4155
FORMULA: C17H28NO2+
SMILES: C[N+](C)(CCCCCCCC(O)=O)CC1=CC=CC=C1
INCHIKEY: AISGEOAHDLDNMF-UHFFFAOYSA-O
COLLISIONENERGY: 35
Num Peaks: 12
58.0669 10.17864280128595
58.0695 5.552871665652967
91.0562 97.6606134329655
91.0595 100
91.1032 10.50777652272135
92.0593 8.86871144321835
92.0626 9.265618211834218
172.1725 17.49708923451212
172.1772 29.64062907289947
201.0523 5.012425058649753
264.2377 9.84168911286819
264.2434 16.91180815014337
