NAME: +2O,-2H_C10_ATMA
PRECURSORMZ: 230.2115
FORMULA: C13H28NO2+
SMILES: C[N+](C)(CCCCCCCCCC(O)=O)C
INCHIKEY: SPWJTPWNSHFUSZ-UHFFFAOYSA-O
COLLISIONENERGY: 35
Num Peaks: 12
60.0796 14.07715962092095
60.0824 9.4424817678149
201.038 9.425316294284878
201.043 29.42865130057071
201.048 12.37401768534216
216.2238 24.06288775578599
216.229 100
216.2341 42.70916946899834
216.2962 5.025069765388847
216.3014 9.394254961230553
217.2285 17.53869996877519
217.2337 22.41794494950899
