NAME: +2O,-2H_C12_DADMA
PRECURSORMZ: 412.415
FORMULA: C26H54NO2+
SMILES: C[N+](CCCCCCCCCCCC(O)=O)(CCCCCCCCCCCC)C
INCHIKEY: PROLGZVXMCAWQK-UHFFFAOYSA-O
COLLISIONENERGY: 35
Num Peaks: 17
228.231 13.34685172245286
228.2363 13.10808774165262
230.2444 5.496229922223592
230.2497 14.69458031338914
412.409 6.928631126090948
412.4161 95.92475372326578
412.4232 100
412.4304 6.17260608053489
412.5161 20.63746511935916
412.5233 6.163928736167628
412.5947 8.711871063796748
412.6019 7.340119930033202
412.6448 7.11843661656642
413.4169 37.92428788688397
413.4241 61.50940121756842
413.4312 9.863400331565895
413.653 5.114700791465147
