NAME: +2O,-2H_C12_Ethyl_BAC
PRECURSORMZ: 362.3054
FORMULA: C23H40NO2+
SMILES: C[N+](C)(CCCCCCCCCCCC(O)=O)CC1=CC=C(CC)C=C1
INCHIKEY: FQXCWHONVMAUIM-UHFFFAOYSA-O
COLLISIONENERGY: 35
Num Peaks: 13
91.0562 8.555951655091791
117.0694 5.913236499209108
117.0732 5.647701169901604
119.0839 23.83310667596152
119.0878 100
119.0916 28.23864029777602
119.1377 6.337689681297102
119.1415 7.227804439616257
120.088 8.439250558464494
120.0919 11.60873402838606
228.231 11.7587110713443
228.2363 19.7061498654509
348.3292 12.60351676334618
