NAME: +2O,-2H_Benzethonium
PRECURSORMZ: 442.2952
FORMULA: c27H40NO4+
SMILES: C[N+](CCOCCOC1=CC=C(C(C)(C)CC(C)(C)C(O)=O)C=C1)(C)CC2=CC=CC=C2
INCHIKEY: JXIGQSJVXCOZMT-UHFFFAOYSA-O
COLLISIONENERGY: 35
Num Peaks: 22
72.0794 19.71320457212373
72.0824 26.70465892463462
91.0528 25.6403361871036
91.0562 30.44519077273695
300.1926 9.323723015032874
300.1987 8.100287030377707
350.2292 51.36329639834961
350.2358 48.86369124459452
350.3214 5.260396203732831
351.2307 11.81575756310035
351.2373 15.89017922756327
442.2866 12.17496975020917
442.294 100
442.3014 77.30802314516897
442.3976 17.1375017784397
442.479 7.513826144956215
442.4864 5.142921287890555
442.5308 5.997616564485245
443.2934 32.13800431002413
443.3008 57.46977305151536
443.3082 8.809052355959437
444.2939 5.018397877097743
