NAME: +2O,-2H_C14_Ethyl_BAC
PRECURSORMZ: 390.3367
FORMULA: C25H44NO2+
SMILES: C[N+](C)(CCCCCCCCCCCCCC(O)=O)CC1=CC=C(CC)C=C1
INCHIKEY: XZZZVDHFWSPRLC-UHFFFAOYSA-O
COLLISIONENERGY: 35
Num Peaks: 16
91.0562 5.827864740333999
117.0694 5.086044497648469
117.0732 7.206398362241336
119.0839 18.5492650471246
119.0878 100
119.0916 35.33715881835018
119.1415 7.422105982994953
120.088 5.949887013736181
120.0919 11.74927025186612
270.2415 8.908782567585739
270.2473 29.2542617435595
270.2531 7.633476319148967
271.2487 5.539435314460362
390.337 7.560031633262347
390.344 19.95208746278971
391.3455 6.547998560021513
