NAME: +2O,-2H_C16_BAC
PRECURSORMZ: 390.3367
FORMULA: C25H44NO2+
SMILES: C[N+](C)(CCCCCCCCCCCCCCCC(O)=O)CC1=CC=CC=C1
INCHIKEY: FXQRPDWFPSJIGF-UHFFFAOYSA-O
COLLISIONENERGY: 35
Num Peaks: 21
58.0669 10.47294434976576
91.0562 56.4695636956078
91.0595 51.99471095684736
91.1032 5.935728680975418
92.0593 5.616830490889318
92.0626 5.173900905443076
298.2818 68.07781893638565
298.2878 72.9867121124366
298.2939 5.431269523138869
298.3668 8.00315009187768
299.2851 23.81375012326749
299.2912 15.71351386637666
390.344 23.67652389861371
390.3509 100
390.3579 40.86869200351677
390.4413 6.670333440280897
390.4482 11.55214249304493
390.5247 6.070038153890599
391.3455 7.606332962489184
391.3524 46.1363456434146
391.3594 23.36512592728399
