NAME: +2O,-2H_C14_BAC
PRECURSORMZ: 362.3054
FORMULA: C23H40NO2+
SMILES: C[N+](C)(CCCCCCCCCCCCCC(O)=O)CC1=CC=CC=C1
INCHIKEY: YNXRLKCNRIHZSS-UHFFFAOYSA-O
COLLISIONENERGY: 35
Num Peaks: 28
58.0669 10.60010278246825
58.0695 10.05153806622128
91.0562 34.00367080243741
91.0595 100
91.0629 21.98614883880283
91.1032 6.154320534468835
91.1065 6.225974598047133
92.0626 9.805447470817121
256.2698 8.805520886865867
256.2755 48.21995448204978
256.2811 19.42823581234858
257.2789 10.92802780021046
270.2531 45.20568729657636
270.2589 51.95732080366101
270.334 5.253358784230232
271.2545 8.461150674204047
271.2603 15.33387171769082
348.3358 6.755255365489562
348.3423 41.88405158701025
348.3489 22.58806255047353
349.341 8.537601252967232
349.3476 17.33626997528327
362.3206 43.38673127278956
362.3273 43.97288500599564
362.4143 6.544698137679564
363.319 5.996524973692583
363.3257 24.01850084428456
363.3324 8.000880992584978
