NAME: +2O_C16_BAC
PRECURSORMZ: 392.3524
FORMULA: C25H46NO2+
SMILES: OCC(O)CCCCCCCCCCCCCC[N+](C)(C)CC1=CC=CC=C1
INCHIKEY: WTPFYRCFEYFXQD-UHFFFAOYSA-N
COLLISIONENERGY: 35
Num Peaks: 28
58.0669 9.134916279114552
91.0528 5.323666194864092
91.0562 72.12296715676362
91.0595 55.5472909866451
91.1032 6.232126866749472
92.0593 6.174114407310052
92.0626 5.202826963998575
282.286 10.31466343144901
282.2919 7.542823305121465
284.2992 10.29757262389632
284.3051 17.05614450638859
300.2962 58.67177946599651
300.3023 67.29854511491763
300.3816 5.981541927843092
301.2968 8.519406491618282
301.3029 19.296966020586
301.309 5.334979828032775
314.2754 5.812078145912167
314.2816 5.630097152815891
392.3552 6.476693915672511
392.3622 92.41240359340247
392.3691 100
392.3761 9.210500977305333
392.4597 13.80672463098299
392.4667 5.426211040180248
393.3593 6.645676266404768
393.3662 50.22916125056568
393.3732 31.46465813570583
