NAME: +2O_C18_ATMA
PRECURSORMZ: 344.3524
FORMULA: C21H46NO2+
SMILES: C[N+](C)(C)CCCCCCCCCCCCCCCCC(O)CO
INCHIKEY: UEEKNAZQQXZVOG-UHFFFAOYSA-N
COLLISIONENERGY: 35
Num Peaks: 31
55.0563 5.50468262226847
59.0494 5.359001040582726
60.0811 5.671175858480749
67.054 8.761706555671175
67.0569 7.866805411030177
79.053 7.939646201873049
79.0561 7.627471383975026
81.0674 8.439125910509885
81.0706 11.05098855359001
81.0738 5.858480749219563
83.0496 5.58792924037461
91.0528 13.50676378772112
91.0562 12.36212278876171
93.0679 8.980228928199791
93.0713 8.199791883454735
93.0747 5.390218522372528
95.0467 5.338189386056191
95.0501 6.378772112382934
95.081 7.481789802289282
95.0844 18.57440166493236
95.0878 17.45057232049948
97.0601 10.3850156087409
97.0636 28.56399583766909
97.0671 23.69406867845994
97.0705 8.647242455775233
99.0422 11.13423517169615
99.0457 9.802289281997918
101.0584 5.379812695109261
101.062 5.026014568158168
105.0689 9.719042663891779
105.0725 8.210197710718003
