NAME: +2O_C14_Ethyl_BAC
PRECURSORMZ: 392.3524
FORMULA: C25H46NO2+
SMILES: C[N+](CCCCCCCCCCCCC(O)CO)(C)CC1=CC=C(CC)C=C1
INCHIKEY: FMUUHKVIOQSXLP-UHFFFAOYSA-N
COLLISIONENERGY: 35
Num Peaks: 12
91.0562 5.51832066978555
119.0839 25.32377760819315
119.0878 100
119.0916 29.06228917128416
119.1415 6.545091078005242
120.088 5.534495725361381
120.0919 10.14328057776746
272.2578 10.77797869869604
272.2635 21.4272481944767
392.3552 22.5111151663957
392.3622 19.65504274638619
393.3593 9.17955141179203
