NAME: +2O_C12_DADMA
PRECURSORMZ: 414.4306
FORMULA: C26H56NO2+
SMILES: C[N+](CCCCCCCCCCC(O)CO)(CCCCCCCCCCCC)C
INCHIKEY: OILNNVDIDFIOBB-UHFFFAOYSA-N
COLLISIONENERGY: 35
Num Peaks: 15
230.2497 15.83430873359141
302.189 5.170161891873565
376.2598 11.50372814194359
376.2666 10.88802208483083
377.2636 5.416444314718667
414.4261 14.37381268973624
414.4332 100
414.4404 63.13439099152753
414.5263 5.288487525195793
414.5335 15.99273142538163
414.6123 7.668857263316793
414.6624 5.515704189847779
415.4293 10.43535774340045
415.4365 52.91652047947434
415.4436 25.38831740752861
