NAME: +2O_C12_ATMA
PRECURSORMZ: 260.2585
FORMULA: C15H34NO2+
SMILES: C[N+](C)(C)CCCCCCCCCCC(O)CO
INCHIKEY: FUTQITJBCTXVFW-UHFFFAOYSA-N
COLLISIONENERGY: 35
Num Peaks: 12
173.0508 5.780755950097239
201.038 29.03872359003532
201.043 100
201.048 41.02028126529694
201.1128 5.700054242131584
202.0419 6.767698149152632
202.0469 12.87192242052205
202.0519 6.666490269490785
260.2462 7.681876513157023
260.2519 40.00026459576382
260.2576 32.35807744718007
261.2574 7.527087991321259
