NAME: +2O_Benzethonium
PRECURSORMZ: 444.3109
FORMULA: C27H42NO4+
SMILES: C[N+](CCOCCOC1=CC=C(C(CO)(C)CC(C)(C)CO)C=C1)(C)CC2=CC=CC=C2
INCHIKEY: WBPPCKISUJZBBF-UHFFFAOYSA-N
COLLISIONENERGY: 35
Num Peaks: 22
72.0794 15.19224824838577
72.0824 17.10464177771672
91.0528 17.83705694463525
91.0562 19.91044442917983
116.1046 9.248351421898612
116.1084 13.70380546778404
136.0608 9.797448138480561
136.0649 5.402527819755461
352.2401 8.574538054677841
352.2467 30.28811478225031
352.2533 10.85013394697074
353.251 6.548375463662591
354.2369 5.327182648715483
354.2435 10.31091152630856
426.2979 5.672783005907405
428.0356 8.619616362137657
444.3013 12.92373609012227
444.3087 100
444.3161 70.24273595274076
444.4125 13.47412075834593
445.3103 40.1894576864954
445.3177 37.50601044099464
