NAME: +2O_C10_DADMA
PRECURSORMZ: 358.368
FORMULA: C22H48NO2+
SMILES: C[N+](CCCCCCCCC(O)CO)(CCCCCCCCCC)C
INCHIKEY: YIYIODQMZWVGKA-UHFFFAOYSA-N
COLLISIONENERGY: 35
Num Peaks: 18
184.2114 6.952854074318809
184.2162 5.146056479305445
202.2212 19.24847140320048
202.2262 32.52278137944448
203.228 5.875383370123842
358.3739 6.124918994349351
358.3805 85.75549076047213
358.3872 100
358.3938 6.315085863866342
358.4738 19.60510860065552
358.4804 6.178427314043726
358.5471 8.213696940767989
358.5537 7.077282151068426
358.5937 6.848385450153603
359.3802 22.30829795131083
359.3868 59.11667106907075
359.3935 12.6167521808887
359.4736 5.707554100733233
