NAME: +2O_C14_BAC
PRECURSORMZ: 364.3211
FORMULA: C23H42NO2+
SMILES: C[N+](CCCCCCCCCCCCC(O)CO)(C)CC1=CC=CC=C1
INCHIKEY: HXBRFTQIDDWWGK-UHFFFAOYSA-N
COLLISIONENERGY: 35
Num Peaks: 32
58.0669 8.541058448522403
58.0695 7.553696973307912
91.0562 43.62376370352717
91.0595 100
91.0629 16.65611594375596
91.1032 5.751943815538609
91.1065 5.061740347950429
92.0626 8.638621603908485
254.2577 17.55652704957102
254.2633 12.31101793374643
256.2698 5.806497259294567
256.2755 15.83967617969495
256.2811 5.2941045042898
270.2531 24.20888197092469
270.2589 17.0242120471878
272.2635 5.65140163250715
272.2694 55.89940568398475
272.2752 38.97834246901811
273.2745 13.29707608436606
273.2804 5.118714251668256
362.3139 5.39036433508103
362.3206 39.20642427311725
362.3273 19.21789352955195
363.3257 11.68765639895138
364.3322 26.90452961153479
364.3389 86.98667629885605
364.3456 29.1682182435653
364.4262 5.109963357959962
364.433 8.039464668732126
365.3334 5.543598069590086
365.3401 33.25190657769304
365.3469 16.02772729980934
