NAME: +2O_C8_BAC
PRECURSORMZ: 280.2272
FORMULA: C17H30NO2+
SMILES: C[N+](CCCCCCC(O)CO)(C)CC1=CC=CC=C1
INCHIKEY: DDYNWPYMCJIAHF-UHFFFAOYSA-N
COLLISIONENERGY: 35
Num Peaks: 70
58.0669 10.84396200814111
58.0695 6.067842605156038
70.0657 7.652645861601086
70.0686 8.24966078697422
84.0818 13.51424694708277
84.0851 18.07327001356852
84.0883 5.698778833107191
91.0528 19.72320217096336
91.0562 100
91.0595 67.94029850746269
91.0629 13.03663500678426
92.0593 8.651289009497965
92.0626 6.230664857530529
94.0683 7.402985074626865
96.0853 5.508819538670285
97.0671 6.388059701492538
108.0832 12.78697421981004
108.0868 10.60515603799186
110.0967 7.87516960651289
110.1004 14.91994572591588
110.1041 9.242876526458616
120.0803 5.031207598371777
120.0841 13.69335142469471
120.088 10.22523744911805
121.0885 6.192672998643148
121.0924 9.39484396200814
122.0971 11.11533242876527
122.101 17.34599728629579
122.1049 9.297150610583445
123.0826 7.283582089552239
123.0865 8.759837177747626
134.0983 7.272727272727272
134.1023 8.91180461329715
136.0649 9.232021709633651
136.069 7.799185888738128
136.1142 5.123473541383989
136.1183 7.261872455902306
155.0697 5.139755766621438
155.0741 6.263229308005427
160.1173 5.573948439620081
162.1312 5.622795115332429
164.1126 8.504748982360923
172.8888 6.887381275440976
181.0878 5.671641791044777
181.0925 5.226594301221168
183.0625 5.210312075983717
183.0673 12.94436906377205
183.072 10.72998643147897
188.1667 13.44369063772049
188.1716 29.67164179104478
188.1764 9.731343283582088
189.1428 5.145183175033921
191.1559 9.080054274084125
191.1608 11.84803256445048
191.1657 7.630936227951153
197.0865 5.633649932157395
201.0473 9.46540027137042
201.0523 24.52103120759837
201.0573 15.6797829036635
205.1734 11.78290366350068
205.1785 12.70013568521031
209.082 11.08276797829037
209.0871 14.27951153324288
209.0922 6.426051560379918
211.0961 5.112618724559023
211.1012 8.086838534599728
211.1063 5.204884667571235
213.1147 9.71506105834464
213.1199 9.443690637720488
223.0997 5.535956580732701
