NAME: +2O_C18_BAC
PRECURSORMZ: 420.3836
FORMULA: C27H50NO2+
SMILES: C[N+](CCCCCCCCCCCCCCCC[C@H](O)CO)(C)CC1=CC=CC=C1
INCHIKEY: BZLMDINAKNDLKD-MHZLTWQESA-N
COLLISIONENERGY: 35
Num Peaks: 17
91.0562 22.67112755219469
91.0595 36.42804487126031
91.0629 5.491492406376442
268.273 8.873515215600202
268.2788 6.36543458609498
328.3302 28.66663775763782
328.3366 58.21188761503848
328.343 10.42893215606873
329.3381 13.84397797132002
329.3445 6.485518244376916
420.3915 5.351394805047517
420.3987 79.62247032099029
420.4059 100
420.4131 9.647387680083792
420.4997 9.381535803276282
421.4019 34.80891687875886
421.4091 34.95668649158914
