NAME: +2O_C10_ATMA
PRECURSORMZ: 232.2272
FORMULA: C13H30NO2+
SMILES: C[N+](C)(C)CCCCCCCCC(O)CO
INCHIKEY: BYGFPGBZVQNODK-UHFFFAOYSA-N
COLLISIONENERGY: 35
Num Peaks: 10
173.0508 5.433459368107473
201.038 26.30009166165392
201.043 100
201.048 39.43241385236745
201.1128 5.56844547563805
202.0419 7.077998338632523
202.0469 12.09289335739452
202.0519 5.537294835438687
232.2197 10.98937297699865
232.225 13.84986107530578
