NAME: +2O_Cetylpyridinium
PRECURSORMZ: 336.2897
FORMULA: C21H38NO2+
SMILES: OCC(O)CCCCCCCCCCCCCC[N+]1=CC=CC=C1
INCHIKEY: UZGXWMOEZWNHIF-UHFFFAOYSA-N
COLLISIONENERGY: 35
Num Peaks: 54
80.0476 15.60707222994537
80.0507 28.03046619544574
80.0539 9.28083331701682
81.0706 5.486264758287158
91.0528 5.241517044230807
91.0562 5.985550094962113
95.0844 5.848491375090557
95.0878 5.300256495604331
97.0671 5.239559062518357
123.0396 6.216591937031308
123.0435 7.48536408669943
123.0787 7.616548861433634
123.0826 9.807530397666085
137.0598 5.744718344330664
177.0909 5.012433183874062
179.1003 5.358995946977855
179.105 8.45652301607503
179.1097 5.509760538836567
181.0783 5.670315039257534
181.0831 12.517377087698
181.0878 9.4766314882619
183.0625 7.516691794098643
183.0673 5.325710257866191
193.082 7.02328040256104
193.0869 8.041430893035459
195.1012 6.831398194740861
197.0766 5.496054666849411
197.0815 5.364869892115208
209.0769 10.02290838603567
209.082 8.200027411743974
223.0892 5.464726959450199
223.0944 8.979304133299395
223.0997 6.457423687662757
235.1276 5.969886241262507
235.133 6.633642041783331
237.106 5.852407338515459
237.1115 7.873044465764689
251.1261 6.911675444951344
253.1426 5.413819434926478
255.1167 7.093767744209269
255.1223 8.620993479920898
267.1161 6.596440389246765
267.1219 7.906330154876354
267.1277 5.464726959450199
295.1489 6.835314158165763
295.1549 5.811289722553992
336.2821 14.01523309772287
336.2885 100
336.295 62.30493607189709
336.3014 5.229769153956102
336.3788 5.950306424137999
337.2892 16.06132398723396
337.2957 22.73216768155385
337.3022 5.621365496446263
