NAME: +2O_C16_ATMA
PRECURSORMZ: 316.3211
FORMULA: C19H42NO2+
SMILES: OCC(O)CCCCCCCCCCCCCC[N+](C)(C)C
INCHIKEY: CBPIKKRVXMVFON-UHFFFAOYSA-N
COLLISIONENERGY: 35
Num Peaks: 39
97.0671 5.404844003157326
109.0656 5.309293340534253
123.0435 7.862157783224627
123.0787 6.750862033151926
123.0826 8.990071039840473
179.105 7.529807652361763
179.1097 7.411407918241868
181.0831 10.7369864151884
181.0878 11.18773628017116
183.0625 8.275518258485315
183.0673 7.504881392547048
193.082 5.830667608325371
193.0869 7.704291471064767
195.1012 6.89003365045075
195.1061 5.111960450334427
209.0769 8.701341863653358
209.082 11.10257155913755
209.0871 5.089111378837606
223.0944 9.422126209962196
223.0997 8.526858044950355
235.133 6.472518798554278
237.1115 7.465414814507083
237.1169 5.683187237754975
251.1261 6.65323418221096
251.1317 5.674878484483403
253.1426 5.64372065971501
255.1223 7.338706327115617
267.1219 8.456233642141997
267.1277 6.987661501391716
284.2577 7.081134975696897
284.2636 9.737858834281916
295.1549 7.361555398612437
316.318 25.09243488014624
316.3242 100
316.3305 46.664035561464
316.4118 5.541938432138258
317.3199 5.224128619500644
317.3261 21.28910307008433
317.3324 16.47625773752648
