NAME: +3O,-2H_C14_ATMA
PRECURSORMZ: 302.2690
PRECURSORTYPE: [M]+
SMILES: C[N+](C)(C)CCCCCCCCCCCCC(O)C(O)=O
INCHIKEY: MHIGUUYWSHWTSR-UHFFFAOYSA-O
COLLISIONENERGY: 35
FORMULA: C17H36NO3+
IONMODE: Positive
Num Peaks: 22
91.0516 5.17291485
136.0603 6.509735542
256.2098 6.026591107
256.2155 32.61043301
256.2211 100
256.2268 71.21113049
256.2324 15.83841906
256.3 5.176547515
257.2188 8.547660564
257.2245 17.37503633
257.2301 13.09575705
270.0703 6.513368207
270.0761 7.951903516
283.0575 10.418483
283.0634 19.0969195
283.0694 15.97282767
283.0753 7.428799768
296.1438 5.310956117
301.0679 5.176547515
301.2755 18.53022377
301.2816 31.25181633
301.2877 7.973699506
