NAME: +3O,-2H_C14_DADMA
PRECURSORMZ: 484.4725 
PRECURSORTYPE: [M]+
SMILES: C[N+](CCCCCCCCCCCCCC)(C)CCCCCCCCCCCCC(O)C(O)=O
INCHIKEY: XQQMEQYXAATJTE-UHFFFAOYSA-O
COLLISIONENERGY: 35
FORMULA: C30H62NO3+
IONMODE: Positive
Num Peaks: 23
86.097 9.276381675
86.1002 10.6970678
104.1047 7.315369029
104.1083 35.46591518
104.1119 30.08361087
104.1155 6.299927801
123.0826 5.065561171
133.0899 6.041409507
184.073 34.31772131
184.0777 100
184.0825 40.35680183
185.0814 6.802990428
382.447 5.983184666
445.2806 5.871392971
482.3672 8.896755712
482.375 11.68921909
484.4711 6.276637865
484.4789 35.23301581
484.4866 49.37932319
484.4943 13.8458672
485.4782 6.709830682
485.486 14.5771712
485.4937 10.37333768
