NAME: +3O,-2H_C18_BAC
PRECURSORMZ: 434.3629
PRECURSORTYPE: [M]+
SMILES: C[N+](C)(CC1=CC=CC=C1)CCCCCCCCCCCCCCCCC(O)C(O)=O   
INCHIKEY: FDYHYXNWXYQVDG-UHFFFAOYSA-O
COLLISIONENERGY: 35
FORMULA: C27H48NO3+
IONMODE: Positive
Num Peaks: 28 
91.0562 30.09281914
91.0595 45.1535982
91.0629 9.2244359
136.0649 9.986407239
136.069 14.44405608
300.3023 8.80111849
326.319 5.301953474
328.3302 5.423123228
328.3366 8.426735019
342.3084 12.27542817
342.3149 31.66569576
342.3214 12.75855373
343.318 6.592877393
392.3622 7.014641345
392.3691 20.21670744
392.3761 7.269408521
393.3732 6.063148083
420.3987 25.93809468
420.4059 22.91817158
421.4019 6.983572178
421.4091 7.096197911
428.0502 8.025942755
428.0574 9.852809818
434.3764 50.39108315
434.3837 100
434.3911 19.49124238
435.3815 23.93413336
435.3888 26.71094023
