NAME: +3O,-2H_C14_Ethyl_BAC
PRECURSORMZ: 406.3316
PRECURSORTYPE: [M]+
SMILES: C[N+](C)(CC1=CC=C(CC)C=C1)CCCCCCCCCCCCC(O)C(O)=O
INCHIKEY: TVUZRMKQPNEDRP-UHFFFAOYSA-O 
COLLISIONENERGY: 35
FORMULA: C25H44NO3+
IONMODE: Positive
Num Peaks: 29   
72.0824 7.5767316
91.0562 5.034460076
105.0689 6.182630926
105.0725 8.844503581
117.0694 8.022993317
117.0732 8.384039229
119.0839 37.34993796
119.0878 100
119.0916 25.83907668
120.088 6.563112021
120.0919 9.013440177
135.0778 5.461286609
135.0818 19.71549881
135.0859 9.983704346
136.0608 6.798576747
136.0649 10.32606258
270.2415 6.813526888
270.2473 10.99732392
272.2578 6.730553604
272.2635 10.90239053
372.8216 9.336363229
372.8284 13.67339921
375.9596 7.198493026
375.9664 7.613359446
390.337 5.234791969
390.344 7.560286445
392.3552 15.37248277
392.3622 11.96235554
406.3375 8.925981851
