NAME: +3O,-2H_C8_ATMA
PRECURSORMZ: 294.2064
FORMULA: C17H28NO3+
SMILES: C[N+](C)(CC1=CC=CC=C1)CCCCCCC(O)C(O)=O
INCHIKEY: CCNMEEFTAFYYCA-UHFFFAOYSA-N
COLLISIONENERGY: 35
Num Peaks: 13
63.0007 5.820078694743858
161.1071 32.69292388141958
161.1115 39.12756494879715
172.2049 5.005575279084373
173.0507 7.836791715263448
173.0553 6.024505594504185
201.0423 31.99313023082937
201.0473 100
201.0523 26.65944657344629
202.0461 7.14276559476052
202.0511 12.3713520372198
217.1704 12.97886520641349
217.1756 9.547825641157095
