NAME: +3O,-2H_C12_Ethyl_BAC
PRECURSORMZ: 378.3003 
PRECURSORTYPE: [M]+
SMILES: C[N+](CC1=CC=C(CC)C=C1)(C)CCCCCCCCCCC(O)C(O)=O
INCHIKEY: BNFMHLPCFATJNL-UHFFFAOYSA-O
COLLISIONENERGY: 35
FORMULA: C23H40NO3+
IONMODE: Positive
Num Peaks: 23
91.0562 5.440263583
105.0689 29.60836738
105.0725 44.23276504
105.0761 5.034008881
117.0694 34.79862807
117.0732 34.14892919
119.0839 18.92421594
119.0878 37.53014117
119.0916 7.859273063
135.0778 22.19508713
135.0818 100
135.0859 31.44673742
135.1391 5.146278699
136.0854 9.651346273
228.231 27.99646601
228.2363 36.24308923
229.2366 6.884724746
230.2497 8.664066328
364.3188 19.04150125
364.3255 49.49401421
364.3322 9.140923699
365.3267 14.6988584
365.3334 5.467270069
