NAME: +3O,-2H_C10_DADMA
PRECURSORMZ: 372.3473
FORMULA: C22H46NO3+
SMILES: C[N+](CCCCCCCCCC)(C)CCCCCCCCC(O)C(O)=O
INCHIKEY: BACHIYRNJMYZNQ-UHFFFAOYSA-O
COLLISIONENERGY: 35
Num Peaks: 24
184.2114 5.044983883555424
200.2102 6.362615651084052
202.2212 20.38046994449909
202.2262 38.04003144955161
203.228 6.796874773339832
356.3655 20.3450166676821
356.3721 9.888330881776957
357.369 6.473153281749106
358.3805 81.50029447689009
358.3872 100
358.3938 6.095294462383841
358.4738 19.78008523872937
358.4804 6.131386014233533
358.5471 8.443566332732773
358.5537 7.154598916673194
358.5937 7.034487160517466
359.3802 22.5948781329875
359.3868 57.97353479614365
359.3935 12.44676931289693
359.4736 5.849732649798798
360.3879 10.30936030335472
372.3599 20.41865039645583
372.3667 19.51752210027301
373.3652 10.05138114013328
