NAME: +3O,-2H_Benzethonium
PRECURSORMZ: 458.2901
FORMULA: C27H40NO5+
SMILES: C[N+](CCOCCOC1=CC=C(C(CO)(C)C(C(C)(C)CO)=O)C=C1)(C)CC2=CC=CC=C2
INCHIKEY: DIWUQLAKZJKIGV-UHFFFAOYSA-N
COLLISIONENERGY: 35
Num Peaks: 31
72.0794 12.3367073276235
72.0824 12.73754938431814
91.0528 14.66678201689881
91.0562 15.40790725841336
116.1084 5.105209024233162
136.0567 11.4158279743538
136.0608 60.74439349809192
136.0649 35.7595332160606
352.2401 6.847958781517048
352.2467 18.34068691063241
352.2533 8.602243562015168
370.2314 7.576587747882843
370.2381 13.00862242985264
410.0263 5.58583499149292
428.0283 22.52213282579231
428.0356 55.4594303621036
428.0429 16.74404744739549
429.0333 5.041766396554873
429.0406 5.604098778248791
444.3013 18.28397304649576
444.3087 100
444.3161 47.20227624458094
444.4125 6.787399909642318
445.3029 5.118666551316434
445.3103 32.08274456652344
445.3177 20.46024742624795
458.2835 21.53781084484432
458.291 36.33436187290327
458.2986 5.551229921850218
459.2857 5.511818592534917
459.2932 10.63336889965491
