NAME: -2H_C8_ATMA
PRECURSORMZ: 170.1904 
PRECURSORTYPE: [M]+
SMILES: C=CCCCCCC[N+](C)(C)C 
INCHIKEY: GUQQTHKHFLIFPT-UHFFFAOYSA-N
COLLISIONENERGY: 35
FORMULA: C11H24N+
IONMODE: Positive
Num Peaks: 19
60.0769 6.976258151
60.0796 21.96957031
60.0824 15.07273031
107.0496 5.588530346
135.0404 8.501922755
135.0445 7.448587193
136.0562 12.20113693
136.0603 16.33506103
136.0644 9.622136766
148.0837 7.327370005
148.088 5.40043471
161.107 5.30429694
170.1797 7.603243605
170.1843 54.29694031
170.1889 100
170.1934 29.5644541
171.1862 6.98879786
171.1908 11.13526166
171.1954 7.745360308
