NAME: -2H_C10_ATMA
PRECURSORMZ: 198.2217
PRECURSORTYPE: [M]+
SMILES: C=CCCCCCCCC[N+](C)(C)C
INCHIKEY: CISUKCZWTOZMHN-UHFFFAOYSA-N
COLLISIONENERGY: 35
FORMULA: C13H28N+
IONMODE: Positive
Num Peaks: 5
60.0796 5.043477717
173.0508 5.268917732
198.2148 15.19359388
198.2197 32.16631907
198.2247 6.299187978
