NAME: -2H_C8_BAC
PRECURSORMZ: 246.2217
PRECURSORTYPE: [M]+
SMILES: C=CCCCCCC[N+](C)(CC1=CC=CC=C1)C
INCHIKEY: FFHCTDCBISSBMX-UHFFFAOYSA-N
COLLISIONENERGY: 35
FORMULA: C17H28N+
IONMODE: Positive
Num Peaks: 15
77.0422 5.077711857
91.0528 7.06407325
91.0562 59.76107255
91.0595 53.72644218
91.0629 5.723380038
154.1642 10.01944056
173.0553 7.194012712
173.06 6.857580306
201.0473 16.16990844
201.0523 100
201.0573 53.07976671
201.1221 5.123039576
202.0561 14.33463944
202.0611 7.476051855
246.2497 5.309386867
