NAME: -2H_Benzethonium
PRECURSORMZ: 410.3054
PRECURSORTYPE: [M]+
SMILES: C[N+](C)(CC1=CC=CC=C1)CCOCCOC2=CC=C(C(C)(/C(C)=C(C)\C)C)C=C2  
INCHIKEY: BHIKRYKTGBKTGY-UHFFFAOYSA-N
COLLISIONENERGY: 35
FORMULA: C27H40NO2+
IONMODE: Positive
Num Peaks: 24
72.0794 18.81861681
72.0824 25.87548186
91.0528 33.69866963
91.0562 35.36942056
119.0839 30.14977703
119.0878 30.17163211
306.2386 12.72291017
306.2448 13.43947771
318.2354 15.50501504
318.2417 49.51942079
318.248 17.15716591
319.2404 6.337507498
319.2466 9.912440189
398.3006 23.20683738
398.3076 27.19887656
399.3052 7.73809247
399.3123 6.321697442
410.297 22.51630993
410.3041 100
410.3113 39.20754419
410.4039 6.489563038
411.3024 18.51683073
411.3095 32.85283163
411.3166 6.089661618
