NAME: C10_ATMA
PRECURSORMZ: 200.2373
PRECURSORTYPE: [M]+
SMILES: C[N+](C)(C)CCCCCCCCCC
INCHIKEY: RKMJXTWHATWGNX-UHFFFAOYSA-N
COLLISIONENERGY: 35
FORMULA: C13H30N+
IONMODE: Positive
Num Peaks: 14
60.0796 16.44576626
60.0824 10.76770803
200.2307 40.15228836
200.2357 100
200.2407 27.89658823
200.3004 6.352627307
200.3054 7.551993088
201.038 11.87996373
201.043 40.27737559
201.048 17.87774207
201.2326 7.640289956
201.2376 24.59661149
201.2426 9.733780198
202.0469 5.345046118
