NAME: C10_BAC
PRECURSORMZ: 276.2686
PRECURSORTYPE: [M]+
SMILES: CCCCCCCCCC[N+](C)(CC1=CC=CC=C1)C
INCHIKEY: UARILQSOMYIQCM-UHFFFAOYSA-N
COLLISIONENERGY: 35
FORMULA: C19H34N+
IONMODE: Positive
Num Peaks: 11
58.0669 9.459705355
91.0528 18.05101425
91.0562 100
91.0595 36.12413191
91.1032 7.623447039
92.0593 9.476673636
184.2066 22.10074024
184.2114 32.94704445
185.2106 5.195531537
276.2719 15.66183554
276.2777 12.05708041
