NAME: C12_Ethyl_BAC
PRECURSORMZ: 332.3312
PRECURSORTYPE: [M]+
SMILES: CCCCCCCCCCCC[N+](C)(CC1=CC=C(CC)C=C1)C
INCHIKEY: KXLOQZDPPMUHLF-UHFFFAOYSA-N
COLLISIONENERGY: 35
FORMULA: C23H42N+
IONMODE: Positive
Num Peaks: 14
91.0528 5.499689539
91.0562 12.57185416
117.0732 5.182816053
119.0839 17.35701646
119.0878 100
119.0916 40.03889948
119.1377 6.204516571
119.1415 9.160285263
120.088 8.809926876
120.0919 14.22510951
212.2374 15.6415592
212.2426 13.90374214
332.3328 8.628801509
332.3392 6.066302297
