NAME: C12_ATMA
PRECURSORMZ: 228.2686
PRECURSORTYPE: [M]+
SMILES: CCCCCCCCCCCC[N+](C)(C)C
INCHIKEY: VICYBMUVWHJEFT-UHFFFAOYSA-N
COLLISIONENERGY: 35
FORMULA: C15H34N+
IONMODE: Positive
Num Peaks: 11
60.0796 17.2523067
60.0824 12.28078075
228.2589 9.124642755
228.2642 93.20562811
228.2695 100
228.2748 10.20478522
228.3386 14.36564145
228.3439 5.70029846
229.2645 19.01830304
229.2699 40.82589528
229.2752 10.02086831
