NAME: C12_BAC
PRECURSORMZ: 304.2999
PRECURSORTYPE: [M]+
SMILES: CCCCCCCCCCCC[N+](C)(CC1=CC=CC=C1)C
INCHIKEY: CYDRXTMLKJDRQH-UHFFFAOYSA-N
COLLISIONENERGY: 35
FORMULA: C21H38N+
IONMODE: Positive
Num Peaks: 17
58.0642 6.020836859
58.0669 9.814752633
91.0528 32.80318013
91.0562 100
91.0595 19.98121484
91.0998 6.469777169
91.1032 5.992216253
92.0593 10.02342527
212.2374 42.12860633
212.2426 38.86308114
213.238 5.228317082
213.2431 11.64177842
304.2964 5.871917171
304.3025 31.97245548
304.3087 14.22378009
305.3036 10.6737013
305.3098 6.813422734
