NAME: C12_DADMA
PRECURSORMZ: 382.4408
PRECURSORTYPE: [M]+
SMILES: CCCCCCCCCCCC[N+](C)(CCCCCCCCCCCC)C
INCHIKEY: QQJDHWMADUVRDL-UHFFFAOYSA-N
COLLISIONENERGY: 35
FORMULA: C26H56N+
IONMODE: Positive
Num Peaks: 18
214.2512 14.09556503
214.2564 34.8102227
214.2615 6.221441189
215.2565 7.707352501
382.4401 21.31385705
382.447 100
382.4538 26.22001366
382.5364 16.15835098
382.5433 15.88933385
382.6121 5.241679082
382.619 15.01327632
382.6602 7.37021493
382.8117 5.840617966
383.4452 41.66673396
383.4521 49.31779267
383.5416 9.364177088
383.6656 6.112630832
383.7414 9.285792994
