NAME: C14_BAC
PRECURSORMZ: 332.3312
PRECURSORTYPE: [M]+
SMILES: CCCCCCCCCCCCCC[N+](C)(CC1=CC=CC=C1)C
INCHIKEY: WNBGYVXHFTYOBY-UHFFFAOYSA-N
COLLISIONENERGY: 35
FORMULA: C23H42N+
IONMODE: Positive
Num Peaks: 19
58.0669 9.985874047
58.0695 9.945333466
91.0562 29.93334598
91.0595 100
91.0629 22.47640906
91.1032 6.172288434
91.1065 6.375051579
92.0626 10.08840015
240.2746 14.15932509
240.2801 80.75707879
240.2856 36.03599859
240.3565 7.176225027
241.2791 9.944550364
241.2845 21.27272125
332.3456 45.69574083
332.352 41.71101734
332.4354 6.785396957
333.3468 14.8092394
333.3532 21.75595534
