NAME: C14_ATMA
PRECURSORMZ: 256.2999
PRECURSORTYPE: [M]+
SMILES: CCCCCCCCCCCCCC[N+](C)(C)C
INCHIKEY: GLFDLEXFOHUASB-UHFFFAOYSA-N
COLLISIONENERGY: 35
FORMULA: C17H38N+
IONMODE: Positive
Num Peaks: 11
60.0796 12.5346237
60.0824 9.037342953
256.2943 62.16991847
256.3 100
256.3056 14.54465529
256.3732 14.15712644
256.3788 8.332444248
256.4408 7.083695157
257.2978 39.75273512
257.3035 31.31751706
257.3768 6.750119183
