NAME: C14_DADMA
PRECURSORMZ: 438.5034
PRECURSORTYPE: [M]+
SMILES: CCCCCCCCCCCCCC[N+](C)(CCCCCCCCCCCCCC)C
INCHIKEY: CJBMLKNLJXFFGD-UHFFFAOYSA-N
COLLISIONENERGY: 35
FORMULA: C30H64N+
IONMODE: Positive
Num Peaks: 17
242.291 21.79574543
242.2965 7.494528709
243.2942 5.007337265
438.5141 72.57221433
438.5215 100
438.5288 5.987268168
438.6173 23.87943942
438.6246 7.802261814
438.6983 11.8362233
438.7057 10.48229298
438.7499 8.781537206
438.912 5.852441261
439.5166 53.32173276
439.524 58.01862548
439.6198 8.149504418
439.9075 5.65563867
439.9149 6.229092518
