NAME: C16_ATMA
PRECURSORMZ: 284.3312
PRECURSORTYPE: [M]+
SMILES: C[N+](C)(C)CCCCCCCCCCCCCCCC
INCHIKEY: RLGQACBPNDBWTB-UHFFFAOYSA-N
COLLISIONENERGY: 35
FORMULA: C19H42N+
IONMODE: Positive
Num Peaks: 13
60.0796 9.752376949
60.0824 7.765142506
284.3256 64.81479433
284.3315 100
284.3374 13.21417707
284.4086 15.14355721
284.4146 9.449720408
284.4798 8.224658322
284.5154 5.462696143
285.3289 40.60039049
285.3349 39.49020736
285.4122 5.038855303
285.4181 5.611092982
