NAME: C16_BAC
PRECURSORMZ: 360.3625
PRECURSORTYPE: [M]+
SMILES: CCCCCCCCCCCCCCCC[N+](C)(C)CC1=CC=CC=C1
INCHIKEY: QDYLMAYUEZBUFO-UHFFFAOYSA-N
COLLISIONENERGY: 35
FORMULA: C2546N+
IONMODE: Positive
Num Peaks: 25
58.0669 17.08854986
58.0695 8.124520384
91.0562 78.51095
91.0595 95.75158173
91.0629 6.586851412
91.1032 10.6818999
92.0593 9.314665651
92.0626 9.111710948
268.3018 7.53733626
268.3076 100
268.3134 94.35408136
268.3883 12.59145573
269.3055 6.202192684
269.3112 38.9293093
269.317 18.7134754
269.3921 5.037913141
360.3679 13.01217621
360.3745 92.01307239
360.3812 61.73289616
360.4681 14.36921442
360.5415 6.737001401
361.3703 6.734318234
361.377 46.90915335
361.3837 27.06466968
361.4706 5.391876446
