NAME: C18_BAC
PRECURSORMZ: 388.3938
PRECURSORTYPE: [M]+
SMILES: CCCCCCCCCCCCCCCCCC[N+](C)(C)CC1=CC=CC=C1
INCHIKEY: FWLORMQUOWCQPO-UHFFFAOYSA-N
COLLISIONENERGY: 35
FORMULA: C27H50N+
IONMODE: Positive
Num Peaks: 24
58.0669 9.057858224
58.0695 8.172463241
91.0562 28.59524497
91.0595 76.70868605
91.0629 12.15624058
91.1032 5.191975186
92.0626 7.253812812
296.3407 39.3899501
296.3467 96.50211472
296.3528 17.13043011
296.4254 7.276941599
296.4315 5.780634079
297.3408 5.222355161
297.3468 32.04155931
297.3529 13.60454024
388.4072 34.3676277
388.4141 100
388.4211 21.0583233
388.5043 10.57535671
388.5112 9.585382106
388.5875 7.077658967
389.4132 43.58832509
389.4201 32.3426086
389.5103 5.623733386
