NAME: C18_ATMA
PRECURSORMZ: 312.3625
PRECURSORTYPE: [M]+
SMILES: C[N+](C)(C)CCCCCCCCCCCCCCCCCC
INCHIKEY: PDSVZUAJOIQXRK-UHFFFAOYSA-N
COLLISIONENERGY: 35
FORMULA: C21H46N+
IONMODE: Positive
Num Peaks: 13
60.0796 5.905360614
60.0824 5.716329296
312.3546 24.37555195
312.3608 100
312.3671 35.57577049
312.4417 8.437525306
312.4479 15.6030252
312.5163 9.056160617
312.622 5.107877139
313.3564 14.15034437
313.3626 52.86579333
313.3689 22.2207548
313.4499 8.430817631
