NAME: C8_ATMA
PRECURSORMZ: 172.2060
PRECURSORTYPE: [M]+
SMILES: C[N+](C)(CCCCCCCC)C
INCHIKEY: HTKPDYSCAPSXIR-UHFFFAOYSA-N
COLLISIONENERGY: 35
FORMULA: C11H26N+
IONMODE: Positive
Num Peaks: 9
60.0796 20.20290731
60.0824 12.53656951
172.1957 5.44051645
172.2003 58.79122446
172.205 100
172.2096 16.8952558
172.265 6.549720275
173.2036 11.88986661
173.2082 14.81371649

