NAME: C8_BAC
PRECURSORMZ: 248.2373
PRECURSORTYPE: [M]+
SMILES: CCCCCCCC[N+](C)(CC1=CC=CC=C1)C
INCHIKEY: SHFLYPPECXRCFO-UHFFFAOYSA-N
COLLISIONENERGY: 35
FORMULA: C17H30N+
IONMODE: Positive
Num Peaks: 12
58.0669 9.569100785
58.0695 5.399462336
91.0562 99.29401437
91.0595 100
91.0629 5.461568004
91.1032 10.22439238
92.0593 9.022878148
92.0626 9.317386295
156.1756 6.419048664
156.18 28.2734405
156.1844 11.3940857
248.2466 12.14242607
