NAME: Cetylpyridinium
PRECURSORMZ: 304.2999
PRECURSORTYPE: [M]+
SMILES: CCCCCCCCCCCCCCCC[N+]1=CC=CC=C1
INCHIKEY: NEUSVAOJNUQRTM-UHFFFAOYSA-N
COLLISIONENERGY: 35
FORMULA:C21H38N+
IONMODE: Positive
Num Peaks: 16
80.0476 26.55371906
80.0507 96.27753509
80.0539 20.39721708
80.0917 5.27930105
80.0948 5.852048994
81.0548 5.700955978
304.2964 20.93199341
304.3025 100
304.3087 39.88504236
304.3823 7.481767958
304.3884 12.76288258
304.4559 7.884267057
305.2975 6.242079802
305.3036 42.62704622
305.3098 23.45342187
305.3897 6.35780821

